lattice_vector           31.60400000         -54.73980000           0.00000000
lattice_vector           31.60400000          54.73980000           0.00000000
lattice_vector            0.00000000           0.00000000          30.00000000

atom_frac            0.01666665           0.03333335           0.10266667 Mo 
atom_frac            0.03333335           0.01666665           0.04969067 S 
atom_frac            0.03333335           0.01666665           0.15564267 S 
atom_frac            0.01666665           0.08333335           0.10266667 Mo 
atom_frac            0.03333335           0.06666665           0.04969067 S 
atom_frac            0.03333335           0.06666665           0.15564267 S 
atom_frac            0.01666665           0.13333335           0.10266667 Mo 
atom_frac            0.03333335           0.11666665           0.04969067 S 
atom_frac            0.03333335           0.11666665           0.15564267 S 
atom_frac            0.01666665           0.18333335           0.10266667 Mo 
atom_frac            0.03333335           0.16666665           0.04969067 S 
atom_frac            0.03333335           0.16666665           0.15564267 S 
atom_frac            0.01666665           0.23333335           0.10266667 Mo 
atom_frac            0.03333335           0.21666665           0.04969067 S 
atom_frac            0.03333335           0.21666665           0.15564267 S 
atom_frac            0.01666665           0.28333335           0.10266667 Mo 
atom_frac            0.03333335           0.26666665           0.04969067 S 
atom_frac            0.03333335           0.26666665           0.15564267 S 
atom_frac            0.01666665           0.33333335           0.10266667 Mo 
atom_frac            0.03333335           0.31666665           0.04969067 S 
atom_frac            0.03333335           0.31666665           0.15564267 S 
atom_frac            0.01666665           0.38333335           0.10266667 Mo 
atom_frac            0.03333335           0.36666665           0.04969067 S 
atom_frac            0.03333335           0.36666665           0.15564267 S 
atom_frac            0.01666665           0.43333335           0.10266667 Mo 
atom_frac            0.03333335           0.41666665           0.04969067 S 
atom_frac            0.03333335           0.41666665           0.15564267 S 
atom_frac            0.01666665           0.48333335           0.10266667 Mo 
atom_frac            0.03333335           0.46666665           0.04969067 S 
atom_frac            0.03333335           0.46666665           0.15564267 S 
atom_frac            0.01666665           0.53333335           0.10266667 Mo 
atom_frac            0.03333335           0.51666665           0.04969067 S 
atom_frac            0.03333335           0.51666665           0.15564267 S 
atom_frac            0.01666665           0.58333335           0.10266667 Mo 
atom_frac            0.03333335           0.56666665           0.04969067 S 
atom_frac            0.03333335           0.56666665           0.15564267 S 
atom_frac            0.01666665           0.63333335           0.10266667 Mo 
atom_frac            0.03333335           0.61666665           0.04969067 S 
atom_frac            0.03333335           0.61666665           0.15564267 S 
atom_frac            0.01666665           0.68333335           0.10266667 Mo 
atom_frac            0.03333335           0.66666665           0.04969067 S 
atom_frac            0.03333335           0.66666665           0.15564267 S 
atom_frac            0.01666665           0.73333335           0.10266667 Mo 
atom_frac            0.03333335           0.71666665           0.04969067 S 
atom_frac            0.03333335           0.71666665           0.15564267 S 
atom_frac            0.01666665           0.78333335           0.10266667 Mo 
atom_frac            0.03333335           0.76666665           0.04969067 S 
atom_frac            0.03333335           0.76666665           0.15564267 S 
atom_frac            0.01666665           0.83333335           0.10266667 Mo 
atom_frac            0.03333335           0.81666665           0.04969067 S 
atom_frac            0.03333335           0.81666665           0.15564267 S 
atom_frac            0.01666665           0.88333335           0.10266667 Mo 
atom_frac            0.03333335           0.86666665           0.04969067 S 
atom_frac            0.03333335           0.86666665           0.15564267 S 
atom_frac            0.01666665           0.93333335           0.10266667 Mo 
atom_frac            0.03333335           0.91666665           0.04969067 S 
atom_frac            0.03333335           0.91666665           0.15564267 S 
atom_frac            0.01666665           0.98333335           0.10266667 Mo 
atom_frac            0.03333335           0.96666665           0.04969067 S 
atom_frac            0.03333335           0.96666665           0.15564267 S 
atom_frac            0.06666665           0.03333335           0.10266667 Mo 
atom_frac            0.08333335           0.01666665           0.04969067 S 
atom_frac            0.08333335           0.01666665           0.15564267 S 
atom_frac            0.06666665           0.08333335           0.10266667 Mo 
atom_frac            0.08333335           0.06666665           0.04969067 S 
atom_frac            0.08333335           0.06666665           0.15564267 S 
atom_frac            0.06666665           0.13333335           0.10266667 Mo 
atom_frac            0.08333335           0.11666665           0.04969067 S 
atom_frac            0.08333335           0.11666665           0.15564267 S 
atom_frac            0.06666665           0.18333335           0.10266667 Mo 
atom_frac            0.08333335           0.16666665           0.04969067 S 
atom_frac            0.08333335           0.16666665           0.15564267 S 
atom_frac            0.06666665           0.23333335           0.10266667 Mo 
atom_frac            0.08333335           0.21666665           0.04969067 S 
atom_frac            0.08333335           0.21666665           0.15564267 S 
atom_frac            0.06666665           0.28333335           0.10266667 Mo 
atom_frac            0.08333335           0.26666665           0.04969067 S 
atom_frac            0.08333335           0.26666665           0.15564267 S 
atom_frac            0.06666665           0.33333335           0.10266667 Mo 
atom_frac            0.08333335           0.31666665           0.04969067 S 
atom_frac            0.08333335           0.31666665           0.15564267 S 
atom_frac            0.06666665           0.38333335           0.10266667 Mo 
atom_frac            0.08333335           0.36666665           0.04969067 S 
atom_frac            0.08333335           0.36666665           0.15564267 S 
atom_frac            0.06666665           0.43333335           0.10266667 Mo 
atom_frac            0.08333335           0.41666665           0.04969067 S 
atom_frac            0.08333335           0.41666665           0.15564267 S 
atom_frac            0.06666665           0.48333335           0.10266667 Mo 
atom_frac            0.08333335           0.46666665           0.04969067 S 
atom_frac            0.08333335           0.46666665           0.15564267 S 
atom_frac            0.06666665           0.53333335           0.10266667 Mo 
atom_frac            0.08333335           0.51666665           0.04969067 S 
atom_frac            0.08333335           0.51666665           0.15564267 S 
atom_frac            0.06666665           0.58333335           0.10266667 Mo 
atom_frac            0.08333335           0.56666665           0.04969067 S 
atom_frac            0.08333335           0.56666665           0.15564267 S 
atom_frac            0.06666665           0.63333335           0.10266667 Mo 
atom_frac            0.08333335           0.61666665           0.04969067 S 
atom_frac            0.08333335           0.61666665           0.15564267 S 
atom_frac            0.06666665           0.68333335           0.10266667 Mo 
atom_frac            0.08333335           0.66666665           0.04969067 S 
atom_frac            0.08333335           0.66666665           0.15564267 S 
atom_frac            0.06666665           0.73333335           0.10266667 Mo 
atom_frac            0.08333335           0.71666665           0.04969067 S 
atom_frac            0.08333335           0.71666665           0.15564267 S 
atom_frac            0.06666665           0.78333335           0.10266667 Mo 
atom_frac            0.08333335           0.76666665           0.04969067 S 
atom_frac            0.08333335           0.76666665           0.15564267 S 
atom_frac            0.06666665           0.83333335           0.10266667 Mo 
atom_frac            0.08333335           0.81666665           0.04969067 S 
atom_frac            0.08333335           0.81666665           0.15564267 S 
atom_frac            0.06666665           0.88333335           0.10266667 Mo 
atom_frac            0.08333335           0.86666665           0.04969067 S 
atom_frac            0.08333335           0.86666665           0.15564267 S 
atom_frac            0.06666665           0.93333335           0.10266667 Mo 
atom_frac            0.08333335           0.91666665           0.04969067 S 
atom_frac            0.08333335           0.91666665           0.15564267 S 
atom_frac            0.06666665           0.98333335           0.10266667 Mo 
atom_frac            0.08333335           0.96666665           0.04969067 S 
atom_frac            0.08333335           0.96666665           0.15564267 S 
atom_frac            0.11666665           0.03333335           0.10266667 Mo 
atom_frac            0.13333335           0.01666665           0.04969067 S 
atom_frac            0.13333335           0.01666665           0.15564267 S 
atom_frac            0.11666665           0.08333335           0.10266667 Mo 
atom_frac            0.13333335           0.06666665           0.04969067 S 
atom_frac            0.13333335           0.06666665           0.15564267 S 
atom_frac            0.11666665           0.13333335           0.10266667 Mo 
atom_frac            0.13333335           0.11666665           0.04969067 S 
atom_frac            0.13333335           0.11666665           0.15564267 S 
atom_frac            0.11666665           0.18333335           0.10266667 Mo 
atom_frac            0.13333335           0.16666665           0.04969067 S 
atom_frac            0.13333335           0.16666665           0.15564267 S 
atom_frac            0.11666665           0.23333335           0.10266667 Mo 
atom_frac            0.13333335           0.21666665           0.04969067 S 
atom_frac            0.13333335           0.21666665           0.15564267 S 
atom_frac            0.11666665           0.28333335           0.10266667 Mo 
atom_frac            0.13333335           0.26666665           0.04969067 S 
atom_frac            0.13333335           0.26666665           0.15564267 S 
atom_frac            0.11666665           0.33333335           0.10266667 Mo 
atom_frac            0.13333335           0.31666665           0.04969067 S 
atom_frac            0.13333335           0.31666665           0.15564267 S 
atom_frac            0.11666665           0.38333335           0.10266667 Mo 
atom_frac            0.13333335           0.36666665           0.04969067 S 
atom_frac            0.13333335           0.36666665           0.15564267 S 
atom_frac            0.11666665           0.43333335           0.10266667 Mo 
atom_frac            0.13333335           0.41666665           0.04969067 S 
atom_frac            0.13333335           0.41666665           0.15564267 S 
atom_frac            0.11666665           0.48333335           0.10266667 Mo 
atom_frac            0.13333335           0.46666665           0.04969067 S 
atom_frac            0.13333335           0.46666665           0.15564267 S 
atom_frac            0.11666665           0.53333335           0.10266667 Mo 
atom_frac            0.13333335           0.51666665           0.04969067 S 
atom_frac            0.13333335           0.51666665           0.15564267 S 
atom_frac            0.11666665           0.58333335           0.10266667 Mo 
atom_frac            0.13333335           0.56666665           0.04969067 S 
atom_frac            0.13333335           0.56666665           0.15564267 S 
atom_frac            0.11666665           0.63333335           0.10266667 Mo 
atom_frac            0.13333335           0.61666665           0.04969067 S 
atom_frac            0.13333335           0.61666665           0.15564267 S 
atom_frac            0.11666665           0.68333335           0.10266667 Mo 
atom_frac            0.13333335           0.66666665           0.04969067 S 
atom_frac            0.13333335           0.66666665           0.15564267 S 
atom_frac            0.11666665           0.73333335           0.10266667 Mo 
atom_frac            0.13333335           0.71666665           0.04969067 S 
atom_frac            0.13333335           0.71666665           0.15564267 S 
atom_frac            0.11666665           0.78333335           0.10266667 Mo 
atom_frac            0.13333335           0.76666665           0.04969067 S 
atom_frac            0.13333335           0.76666665           0.15564267 S 
atom_frac            0.11666665           0.83333335           0.10266667 Mo 
atom_frac            0.13333335           0.81666665           0.04969067 S 
atom_frac            0.13333335           0.81666665           0.15564267 S 
atom_frac            0.11666665           0.88333335           0.10266667 Mo 
atom_frac            0.13333335           0.86666665           0.04969067 S 
atom_frac            0.13333335           0.86666665           0.15564267 S 
atom_frac            0.11666665           0.93333335           0.10266667 Mo 
atom_frac            0.13333335           0.91666665           0.04969067 S 
atom_frac            0.13333335           0.91666665           0.15564267 S 
atom_frac            0.11666665           0.98333335           0.10266667 Mo 
atom_frac            0.13333335           0.96666665           0.04969067 S 
atom_frac            0.13333335           0.96666665           0.15564267 S 
atom_frac            0.16666665           0.03333335           0.10266667 Mo 
atom_frac            0.18333335           0.01666665           0.04969067 S 
atom_frac            0.18333335           0.01666665           0.15564267 S 
atom_frac            0.16666665           0.08333335           0.10266667 Mo 
atom_frac            0.18333335           0.06666665           0.04969067 S 
atom_frac            0.18333335           0.06666665           0.15564267 S 
atom_frac            0.16666665           0.13333335           0.10266667 Mo 
atom_frac            0.18333335           0.11666665           0.04969067 S 
atom_frac            0.18333335           0.11666665           0.15564267 S 
atom_frac            0.16666665           0.18333335           0.10266667 Mo 
atom_frac            0.18333335           0.16666665           0.04969067 S 
atom_frac            0.18333335           0.16666665           0.15564267 S 
atom_frac            0.16666665           0.23333335           0.10266667 Mo 
atom_frac            0.18333335           0.21666665           0.04969067 S 
atom_frac            0.18333335           0.21666665           0.15564267 S 
atom_frac            0.16666665           0.28333335           0.10266667 Mo 
atom_frac            0.18333335           0.26666665           0.04969067 S 
atom_frac            0.18333335           0.26666665           0.15564267 S 
atom_frac            0.16666665           0.33333335           0.10266667 Mo 
atom_frac            0.18333335           0.31666665           0.04969067 S 
atom_frac            0.18333335           0.31666665           0.15564267 S 
atom_frac            0.16666665           0.38333335           0.10266667 Mo 
atom_frac            0.18333335           0.36666665           0.04969067 S 
atom_frac            0.18333335           0.36666665           0.15564267 S 
atom_frac            0.16666665           0.43333335           0.10266667 Mo 
atom_frac            0.18333335           0.41666665           0.04969067 S 
atom_frac            0.18333335           0.41666665           0.15564267 S 
atom_frac            0.16666665           0.48333335           0.10266667 Mo 
atom_frac            0.18333335           0.46666665           0.04969067 S 
atom_frac            0.18333335           0.46666665           0.15564267 S 
atom_frac            0.16666665           0.53333335           0.10266667 Mo 
atom_frac            0.18333335           0.51666665           0.04969067 S 
atom_frac            0.18333335           0.51666665           0.15564267 S 
atom_frac            0.16666665           0.58333335           0.10266667 Mo 
atom_frac            0.18333335           0.56666665           0.04969067 S 
atom_frac            0.18333335           0.56666665           0.15564267 S 
atom_frac            0.16666665           0.63333335           0.10266667 Mo 
atom_frac            0.18333335           0.61666665           0.04969067 S 
atom_frac            0.18333335           0.61666665           0.15564267 S 
atom_frac            0.16666665           0.68333335           0.10266667 Mo 
atom_frac            0.18333335           0.66666665           0.04969067 S 
atom_frac            0.18333335           0.66666665           0.15564267 S 
atom_frac            0.16666665           0.73333335           0.10266667 Mo 
atom_frac            0.18333335           0.71666665           0.04969067 S 
atom_frac            0.18333335           0.71666665           0.15564267 S 
atom_frac            0.16666665           0.78333335           0.10266667 Mo 
atom_frac            0.18333335           0.76666665           0.04969067 S 
atom_frac            0.18333335           0.76666665           0.15564267 S 
atom_frac            0.16666665           0.83333335           0.10266667 Mo 
atom_frac            0.18333335           0.81666665           0.04969067 S 
atom_frac            0.18333335           0.81666665           0.15564267 S 
atom_frac            0.16666665           0.88333335           0.10266667 Mo 
atom_frac            0.18333335           0.86666665           0.04969067 S 
atom_frac            0.18333335           0.86666665           0.15564267 S 
atom_frac            0.16666665           0.93333335           0.10266667 Mo 
atom_frac            0.18333335           0.91666665           0.04969067 S 
atom_frac            0.18333335           0.91666665           0.15564267 S 
atom_frac            0.16666665           0.98333335           0.10266667 Mo 
atom_frac            0.18333335           0.96666665           0.04969067 S 
atom_frac            0.18333335           0.96666665           0.15564267 S 
atom_frac            0.21666665           0.03333335           0.10266667 Mo 
atom_frac            0.23333335           0.01666665           0.04969067 S 
atom_frac            0.23333335           0.01666665           0.15564267 S 
atom_frac            0.21666665           0.08333335           0.10266667 Mo 
atom_frac            0.23333335           0.06666665           0.04969067 S 
atom_frac            0.23333335           0.06666665           0.15564267 S 
atom_frac            0.21666665           0.13333335           0.10266667 Mo 
atom_frac            0.23333335           0.11666665           0.04969067 S 
atom_frac            0.23333335           0.11666665           0.15564267 S 
atom_frac            0.21666665           0.18333335           0.10266667 Mo 
atom_frac            0.23333335           0.16666665           0.04969067 S 
atom_frac            0.23333335           0.16666665           0.15564267 S 
atom_frac            0.21666665           0.23333335           0.10266667 Mo 
atom_frac            0.23333335           0.21666665           0.04969067 S 
atom_frac            0.23333335           0.21666665           0.15564267 S 
atom_frac            0.21666665           0.28333335           0.10266667 Mo 
atom_frac            0.23333335           0.26666665           0.04969067 S 
atom_frac            0.23333335           0.26666665           0.15564267 S 
atom_frac            0.21666665           0.33333335           0.10266667 Mo 
atom_frac            0.23333335           0.31666665           0.04969067 S 
atom_frac            0.23333335           0.31666665           0.15564267 S 
atom_frac            0.21666665           0.38333335           0.10266667 Mo 
atom_frac            0.23333335           0.36666665           0.04969067 S 
atom_frac            0.23333335           0.36666665           0.15564267 S 
atom_frac            0.21666665           0.43333335           0.10266667 Mo 
atom_frac            0.23333335           0.41666665           0.04969067 S 
atom_frac            0.23333335           0.41666665           0.15564267 S 
atom_frac            0.21666665           0.48333335           0.10266667 Mo 
atom_frac            0.23333335           0.46666665           0.04969067 S 
atom_frac            0.23333335           0.46666665           0.15564267 S 
atom_frac            0.21666665           0.53333335           0.10266667 Mo 
atom_frac            0.23333335           0.51666665           0.04969067 S 
atom_frac            0.23333335           0.51666665           0.15564267 S 
atom_frac            0.21666665           0.58333335           0.10266667 Mo 
atom_frac            0.23333335           0.56666665           0.04969067 S 
atom_frac            0.23333335           0.56666665           0.15564267 S 
atom_frac            0.21666665           0.63333335           0.10266667 Mo 
atom_frac            0.23333335           0.61666665           0.04969067 S 
atom_frac            0.23333335           0.61666665           0.15564267 S 
atom_frac            0.21666665           0.68333335           0.10266667 Mo 
atom_frac            0.23333335           0.66666665           0.04969067 S 
atom_frac            0.23333335           0.66666665           0.15564267 S 
atom_frac            0.21666665           0.73333335           0.10266667 Mo 
atom_frac            0.23333335           0.71666665           0.04969067 S 
atom_frac            0.23333335           0.71666665           0.15564267 S 
atom_frac            0.21666665           0.78333335           0.10266667 Mo 
atom_frac            0.23333335           0.76666665           0.04969067 S 
atom_frac            0.23333335           0.76666665           0.15564267 S 
atom_frac            0.21666665           0.83333335           0.10266667 Mo 
atom_frac            0.23333335           0.81666665           0.04969067 S 
atom_frac            0.23333335           0.81666665           0.15564267 S 
atom_frac            0.21666665           0.88333335           0.10266667 Mo 
atom_frac            0.23333335           0.86666665           0.04969067 S 
atom_frac            0.23333335           0.86666665           0.15564267 S 
atom_frac            0.21666665           0.93333335           0.10266667 Mo 
atom_frac            0.23333335           0.91666665           0.04969067 S 
atom_frac            0.23333335           0.91666665           0.15564267 S 
atom_frac            0.21666665           0.98333335           0.10266667 Mo 
atom_frac            0.23333335           0.96666665           0.04969067 S 
atom_frac            0.23333335           0.96666665           0.15564267 S 
atom_frac            0.26666665           0.03333335           0.10266667 Mo 
atom_frac            0.28333335           0.01666665           0.04969067 S 
atom_frac            0.28333335           0.01666665           0.15564267 S 
atom_frac            0.26666665           0.08333335           0.10266667 Mo 
atom_frac            0.28333335           0.06666665           0.04969067 S 
atom_frac            0.28333335           0.06666665           0.15564267 S 
atom_frac            0.26666665           0.13333335           0.10266667 Mo 
atom_frac            0.28333335           0.11666665           0.04969067 S 
atom_frac            0.28333335           0.11666665           0.15564267 S 
atom_frac            0.26666665           0.18333335           0.10266667 Mo 
atom_frac            0.28333335           0.16666665           0.04969067 S 
atom_frac            0.28333335           0.16666665           0.15564267 S 
atom_frac            0.26666665           0.23333335           0.10266667 Mo 
atom_frac            0.28333335           0.21666665           0.04969067 S 
atom_frac            0.28333335           0.21666665           0.15564267 S 
atom_frac            0.26666665           0.28333335           0.10266667 Mo 
atom_frac            0.28333335           0.26666665           0.04969067 S 
atom_frac            0.28333335           0.26666665           0.15564267 S 
atom_frac            0.26666665           0.33333335           0.10266667 Mo 
atom_frac            0.28333335           0.31666665           0.04969067 S 
atom_frac            0.28333335           0.31666665           0.15564267 S 
atom_frac            0.26666665           0.38333335           0.10266667 Mo 
atom_frac            0.28333335           0.36666665           0.04969067 S 
atom_frac            0.28333335           0.36666665           0.15564267 S 
atom_frac            0.26666665           0.43333335           0.10266667 Mo 
atom_frac            0.28333335           0.41666665           0.04969067 S 
atom_frac            0.28333335           0.41666665           0.15564267 S 
atom_frac            0.26666665           0.48333335           0.10266667 Mo 
atom_frac            0.28333335           0.46666665           0.04969067 S 
atom_frac            0.28333335           0.46666665           0.15564267 S 
atom_frac            0.26666665           0.53333335           0.10266667 Mo 
atom_frac            0.28333335           0.51666665           0.04969067 S 
atom_frac            0.28333335           0.51666665           0.15564267 S 
atom_frac            0.26666665           0.58333335           0.10266667 Mo 
atom_frac            0.28333335           0.56666665           0.04969067 S 
atom_frac            0.28333335           0.56666665           0.15564267 S 
atom_frac            0.26666665           0.63333335           0.10266667 Mo 
atom_frac            0.28333335           0.61666665           0.04969067 S 
atom_frac            0.28333335           0.61666665           0.15564267 S 
atom_frac            0.26666665           0.68333335           0.10266667 Mo 
atom_frac            0.28333335           0.66666665           0.04969067 S 
atom_frac            0.28333335           0.66666665           0.15564267 S 
atom_frac            0.26666665           0.73333335           0.10266667 Mo 
atom_frac            0.28333335           0.71666665           0.04969067 S 
atom_frac            0.28333335           0.71666665           0.15564267 S 
atom_frac            0.26666665           0.78333335           0.10266667 Mo 
atom_frac            0.28333335           0.76666665           0.04969067 S 
atom_frac            0.28333335           0.76666665           0.15564267 S 
atom_frac            0.26666665           0.83333335           0.10266667 Mo 
atom_frac            0.28333335           0.81666665           0.04969067 S 
atom_frac            0.28333335           0.81666665           0.15564267 S 
atom_frac            0.26666665           0.88333335           0.10266667 Mo 
atom_frac            0.28333335           0.86666665           0.04969067 S 
atom_frac            0.28333335           0.86666665           0.15564267 S 
atom_frac            0.26666665           0.93333335           0.10266667 Mo 
atom_frac            0.28333335           0.91666665           0.04969067 S 
atom_frac            0.28333335           0.91666665           0.15564267 S 
atom_frac            0.26666665           0.98333335           0.10266667 Mo 
atom_frac            0.28333335           0.96666665           0.04969067 S 
atom_frac            0.28333335           0.96666665           0.15564267 S 
atom_frac            0.31666665           0.03333335           0.10266667 Mo 
atom_frac            0.33333335           0.01666665           0.04969067 S 
atom_frac            0.33333335           0.01666665           0.15564267 S 
atom_frac            0.31666665           0.08333335           0.10266667 Mo 
atom_frac            0.33333335           0.06666665           0.04969067 S 
atom_frac            0.33333335           0.06666665           0.15564267 S 
atom_frac            0.31666665           0.13333335           0.10266667 Mo 
atom_frac            0.33333335           0.11666665           0.04969067 S 
atom_frac            0.33333335           0.11666665           0.15564267 S 
atom_frac            0.31666665           0.18333335           0.10266667 Mo 
atom_frac            0.33333335           0.16666665           0.04969067 S 
atom_frac            0.33333335           0.16666665           0.15564267 S 
atom_frac            0.31666665           0.23333335           0.10266667 Mo 
atom_frac            0.33333335           0.21666665           0.04969067 S 
atom_frac            0.33333335           0.21666665           0.15564267 S 
atom_frac            0.31666665           0.28333335           0.10266667 Mo 
atom_frac            0.33333335           0.26666665           0.04969067 S 
atom_frac            0.33333335           0.26666665           0.15564267 S 
atom_frac            0.31666665           0.33333335           0.10266667 Mo 
atom_frac            0.33333335           0.31666665           0.04969067 S 
atom_frac            0.33333335           0.31666665           0.15564267 S 
atom_frac            0.31666665           0.38333335           0.10266667 Mo 
atom_frac            0.33333335           0.36666665           0.04969067 S 
atom_frac            0.33333335           0.36666665           0.15564267 S 