lattice_vector           47.40600000         -82.10970000           0.00000000
lattice_vector           47.40600000          82.10970000           0.00000000
lattice_vector            0.00000000           0.00000000          30.00000000

atom_frac            0.01111110           0.02222223           0.10266667 Mo 
atom_frac            0.02222223           0.01111110           0.04969067 S 
atom_frac            0.02222223           0.01111110           0.15564267 S 
atom_frac            0.01111110           0.05555557           0.10266667 Mo 
atom_frac            0.02222223           0.04444443           0.04969067 S 
atom_frac            0.02222223           0.04444443           0.15564267 S 
atom_frac            0.01111110           0.08888890           0.10266667 Mo 
atom_frac            0.02222223           0.07777777           0.04969067 S 
atom_frac            0.02222223           0.07777777           0.15564267 S 
atom_frac            0.01111110           0.12222223           0.10266667 Mo 
atom_frac            0.02222223           0.11111110           0.04969067 S 
atom_frac            0.02222223           0.11111110           0.15564267 S 
atom_frac            0.01111110           0.15555557           0.10266667 Mo 
atom_frac            0.02222223           0.14444443           0.04969067 S 
atom_frac            0.02222223           0.14444443           0.15564267 S 
atom_frac            0.01111110           0.18888890           0.10266667 Mo 
atom_frac            0.02222223           0.17777777           0.04969067 S 
atom_frac            0.02222223           0.17777777           0.15564267 S 
atom_frac            0.01111110           0.22222223           0.10266667 Mo 
atom_frac            0.02222223           0.21111110           0.04969067 S 
atom_frac            0.02222223           0.21111110           0.15564267 S 
atom_frac            0.01111110           0.25555557           0.10266667 Mo 
atom_frac            0.02222223           0.24444443           0.04969067 S 
atom_frac            0.02222223           0.24444443           0.15564267 S 
atom_frac            0.01111110           0.28888890           0.10266667 Mo 
atom_frac            0.02222223           0.27777777           0.04969067 S 
atom_frac            0.02222223           0.27777777           0.15564267 S 
atom_frac            0.01111110           0.32222223           0.10266667 Mo 
atom_frac            0.02222223           0.31111110           0.04969067 S 
atom_frac            0.02222223           0.31111110           0.15564267 S 
atom_frac            0.01111110           0.35555557           0.10266667 Mo 
atom_frac            0.02222223           0.34444443           0.04969067 S 
atom_frac            0.02222223           0.34444443           0.15564267 S 
atom_frac            0.01111110           0.38888890           0.10266667 Mo 
atom_frac            0.02222223           0.37777777           0.04969067 S 
atom_frac            0.02222223           0.37777777           0.15564267 S 
atom_frac            0.01111110           0.42222223           0.10266667 Mo 
atom_frac            0.02222223           0.41111110           0.04969067 S 
atom_frac            0.02222223           0.41111110           0.15564267 S 
atom_frac            0.01111110           0.45555557           0.10266667 Mo 
atom_frac            0.02222223           0.44444443           0.04969067 S 
atom_frac            0.02222223           0.44444443           0.15564267 S 
atom_frac            0.01111110           0.48888890           0.10266667 Mo 
atom_frac            0.02222223           0.47777777           0.04969067 S 
atom_frac            0.02222223           0.47777777           0.15564267 S 
atom_frac            0.01111110           0.52222223           0.10266667 Mo 
atom_frac            0.02222223           0.51111110           0.04969067 S 
atom_frac            0.02222223           0.51111110           0.15564267 S 
atom_frac            0.01111110           0.55555557           0.10266667 Mo 
atom_frac            0.02222223           0.54444443           0.04969067 S 
atom_frac            0.02222223           0.54444443           0.15564267 S 
atom_frac            0.01111110           0.58888890           0.10266667 Mo 
atom_frac            0.02222223           0.57777777           0.04969067 S 
atom_frac            0.02222223           0.57777777           0.15564267 S 
atom_frac            0.01111110           0.62222223           0.10266667 Mo 
atom_frac            0.02222223           0.61111110           0.04969067 S 
atom_frac            0.02222223           0.61111110           0.15564267 S 
atom_frac            0.01111110           0.65555557           0.10266667 Mo 
atom_frac            0.02222223           0.64444443           0.04969067 S 
atom_frac            0.02222223           0.64444443           0.15564267 S 
atom_frac            0.01111110           0.68888890           0.10266667 Mo 
atom_frac            0.02222223           0.67777777           0.04969067 S 
atom_frac            0.02222223           0.67777777           0.15564267 S 
atom_frac            0.01111110           0.72222223           0.10266667 Mo 
atom_frac            0.02222223           0.71111110           0.04969067 S 
atom_frac            0.02222223           0.71111110           0.15564267 S 
atom_frac            0.01111110           0.75555557           0.10266667 Mo 
atom_frac            0.02222223           0.74444443           0.04969067 S 
atom_frac            0.02222223           0.74444443           0.15564267 S 
atom_frac            0.01111110           0.78888890           0.10266667 Mo 
atom_frac            0.02222223           0.77777777           0.04969067 S 
atom_frac            0.02222223           0.77777777           0.15564267 S 
atom_frac            0.01111110           0.82222223           0.10266667 Mo 
atom_frac            0.02222223           0.81111110           0.04969067 S 
atom_frac            0.02222223           0.81111110           0.15564267 S 
atom_frac            0.01111110           0.85555557           0.10266667 Mo 
atom_frac            0.02222223           0.84444443           0.04969067 S 
atom_frac            0.02222223           0.84444443           0.15564267 S 
atom_frac            0.01111110           0.88888890           0.10266667 Mo 
atom_frac            0.02222223           0.87777777           0.04969067 S 
atom_frac            0.02222223           0.87777777           0.15564267 S 
atom_frac            0.01111110           0.92222223           0.10266667 Mo 
atom_frac            0.02222223           0.91111110           0.04969067 S 
atom_frac            0.02222223           0.91111110           0.15564267 S 
atom_frac            0.01111110           0.95555557           0.10266667 Mo 
atom_frac            0.02222223           0.94444443           0.04969067 S 
atom_frac            0.02222223           0.94444443           0.15564267 S 
atom_frac            0.01111110           0.98888890           0.10266667 Mo 
atom_frac            0.02222223           0.97777777           0.04969067 S 
atom_frac            0.02222223           0.97777777           0.15564267 S 
atom_frac            0.04444443           0.02222223           0.10266667 Mo 
atom_frac            0.05555557           0.01111110           0.04969067 S 
atom_frac            0.05555557           0.01111110           0.15564267 S 
atom_frac            0.04444443           0.05555557           0.10266667 Mo 
atom_frac            0.05555557           0.04444443           0.04969067 S 
atom_frac            0.05555557           0.04444443           0.15564267 S 
atom_frac            0.04444443           0.08888890           0.10266667 Mo 
atom_frac            0.05555557           0.07777777           0.04969067 S 
atom_frac            0.05555557           0.07777777           0.15564267 S 
atom_frac            0.04444443           0.12222223           0.10266667 Mo 
atom_frac            0.05555557           0.11111110           0.04969067 S 
atom_frac            0.05555557           0.11111110           0.15564267 S 
atom_frac            0.04444443           0.15555557           0.10266667 Mo 
atom_frac            0.05555557           0.14444443           0.04969067 S 
atom_frac            0.05555557           0.14444443           0.15564267 S 
atom_frac            0.04444443           0.18888890           0.10266667 Mo 
atom_frac            0.05555557           0.17777777           0.04969067 S 
atom_frac            0.05555557           0.17777777           0.15564267 S 
atom_frac            0.04444443           0.22222223           0.10266667 Mo 
atom_frac            0.05555557           0.21111110           0.04969067 S 
atom_frac            0.05555557           0.21111110           0.15564267 S 
atom_frac            0.04444443           0.25555557           0.10266667 Mo 
atom_frac            0.05555557           0.24444443           0.04969067 S 
atom_frac            0.05555557           0.24444443           0.15564267 S 
atom_frac            0.04444443           0.28888890           0.10266667 Mo 
atom_frac            0.05555557           0.27777777           0.04969067 S 
atom_frac            0.05555557           0.27777777           0.15564267 S 
atom_frac            0.04444443           0.32222223           0.10266667 Mo 
atom_frac            0.05555557           0.31111110           0.04969067 S 
atom_frac            0.05555557           0.31111110           0.15564267 S 
atom_frac            0.04444443           0.35555557           0.10266667 Mo 
atom_frac            0.05555557           0.34444443           0.04969067 S 
atom_frac            0.05555557           0.34444443           0.15564267 S 
atom_frac            0.04444443           0.38888890           0.10266667 Mo 
atom_frac            0.05555557           0.37777777           0.04969067 S 
atom_frac            0.05555557           0.37777777           0.15564267 S 
atom_frac            0.04444443           0.42222223           0.10266667 Mo 
atom_frac            0.05555557           0.41111110           0.04969067 S 
atom_frac            0.05555557           0.41111110           0.15564267 S 
atom_frac            0.04444443           0.45555557           0.10266667 Mo 
atom_frac            0.05555557           0.44444443           0.04969067 S 
atom_frac            0.05555557           0.44444443           0.15564267 S 
atom_frac            0.04444443           0.48888890           0.10266667 Mo 
atom_frac            0.05555557           0.47777777           0.04969067 S 
atom_frac            0.05555557           0.47777777           0.15564267 S 
atom_frac            0.04444443           0.52222223           0.10266667 Mo 
atom_frac            0.05555557           0.51111110           0.04969067 S 
atom_frac            0.05555557           0.51111110           0.15564267 S 
atom_frac            0.04444443           0.55555557           0.10266667 Mo 
atom_frac            0.05555557           0.54444443           0.04969067 S 
atom_frac            0.05555557           0.54444443           0.15564267 S 
atom_frac            0.04444443           0.58888890           0.10266667 Mo 
atom_frac            0.05555557           0.57777777           0.04969067 S 
atom_frac            0.05555557           0.57777777           0.15564267 S 
atom_frac            0.04444443           0.62222223           0.10266667 Mo 
atom_frac            0.05555557           0.61111110           0.04969067 S 
atom_frac            0.05555557           0.61111110           0.15564267 S 
atom_frac            0.04444443           0.65555557           0.10266667 Mo 
atom_frac            0.05555557           0.64444443           0.04969067 S 
atom_frac            0.05555557           0.64444443           0.15564267 S 
atom_frac            0.04444443           0.68888890           0.10266667 Mo 
atom_frac            0.05555557           0.67777777           0.04969067 S 
atom_frac            0.05555557           0.67777777           0.15564267 S 
atom_frac            0.04444443           0.72222223           0.10266667 Mo 
atom_frac            0.05555557           0.71111110           0.04969067 S 
atom_frac            0.05555557           0.71111110           0.15564267 S 
atom_frac            0.04444443           0.75555557           0.10266667 Mo 
atom_frac            0.05555557           0.74444443           0.04969067 S 
atom_frac            0.05555557           0.74444443           0.15564267 S 
atom_frac            0.04444443           0.78888890           0.10266667 Mo 
atom_frac            0.05555557           0.77777777           0.04969067 S 
atom_frac            0.05555557           0.77777777           0.15564267 S 
atom_frac            0.04444443           0.82222223           0.10266667 Mo 
atom_frac            0.05555557           0.81111110           0.04969067 S 
atom_frac            0.05555557           0.81111110           0.15564267 S 
atom_frac            0.04444443           0.85555557           0.10266667 Mo 
atom_frac            0.05555557           0.84444443           0.04969067 S 
atom_frac            0.05555557           0.84444443           0.15564267 S 
atom_frac            0.04444443           0.88888890           0.10266667 Mo 
atom_frac            0.05555557           0.87777777           0.04969067 S 
atom_frac            0.05555557           0.87777777           0.15564267 S 
atom_frac            0.04444443           0.92222223           0.10266667 Mo 
atom_frac            0.05555557           0.91111110           0.04969067 S 
atom_frac            0.05555557           0.91111110           0.15564267 S 
atom_frac            0.04444443           0.95555557           0.10266667 Mo 
atom_frac            0.05555557           0.94444443           0.04969067 S 
atom_frac            0.05555557           0.94444443           0.15564267 S 
atom_frac            0.04444443           0.98888890           0.10266667 Mo 
atom_frac            0.05555557           0.97777777           0.04969067 S 
atom_frac            0.05555557           0.97777777           0.15564267 S 
atom_frac            0.07777777           0.02222223           0.10266667 Mo 
atom_frac            0.08888890           0.01111110           0.04969067 S 
atom_frac            0.08888890           0.01111110           0.15564267 S 
atom_frac            0.07777777           0.05555557           0.10266667 Mo 
atom_frac            0.08888890           0.04444443           0.04969067 S 
atom_frac            0.08888890           0.04444443           0.15564267 S 
atom_frac            0.07777777           0.08888890           0.10266667 Mo 
atom_frac            0.08888890           0.07777777           0.04969067 S 
atom_frac            0.08888890           0.07777777           0.15564267 S 
atom_frac            0.07777777           0.12222223           0.10266667 Mo 
atom_frac            0.08888890           0.11111110           0.04969067 S 
atom_frac            0.08888890           0.11111110           0.15564267 S 
atom_frac            0.07777777           0.15555557           0.10266667 Mo 
atom_frac            0.08888890           0.14444443           0.04969067 S 
atom_frac            0.08888890           0.14444443           0.15564267 S 
atom_frac            0.07777777           0.18888890           0.10266667 Mo 
atom_frac            0.08888890           0.17777777           0.04969067 S 
atom_frac            0.08888890           0.17777777           0.15564267 S 
atom_frac            0.07777777           0.22222223           0.10266667 Mo 
atom_frac            0.08888890           0.21111110           0.04969067 S 
atom_frac            0.08888890           0.21111110           0.15564267 S 
atom_frac            0.07777777           0.25555557           0.10266667 Mo 
atom_frac            0.08888890           0.24444443           0.04969067 S 
atom_frac            0.08888890           0.24444443           0.15564267 S 
atom_frac            0.07777777           0.28888890           0.10266667 Mo 
atom_frac            0.08888890           0.27777777           0.04969067 S 
atom_frac            0.08888890           0.27777777           0.15564267 S 
atom_frac            0.07777777           0.32222223           0.10266667 Mo 
atom_frac            0.08888890           0.31111110           0.04969067 S 
atom_frac            0.08888890           0.31111110           0.15564267 S 
atom_frac            0.07777777           0.35555557           0.10266667 Mo 
atom_frac            0.08888890           0.34444443           0.04969067 S 
atom_frac            0.08888890           0.34444443           0.15564267 S 
atom_frac            0.07777777           0.38888890           0.10266667 Mo 
atom_frac            0.08888890           0.37777777           0.04969067 S 
atom_frac            0.08888890           0.37777777           0.15564267 S 
atom_frac            0.07777777           0.42222223           0.10266667 Mo 
atom_frac            0.08888890           0.41111110           0.04969067 S 
atom_frac            0.08888890           0.41111110           0.15564267 S 
atom_frac            0.07777777           0.45555557           0.10266667 Mo 
atom_frac            0.08888890           0.44444443           0.04969067 S 
atom_frac            0.08888890           0.44444443           0.15564267 S 
atom_frac            0.07777777           0.48888890           0.10266667 Mo 
atom_frac            0.08888890           0.47777777           0.04969067 S 
atom_frac            0.08888890           0.47777777           0.15564267 S 
atom_frac            0.07777777           0.52222223           0.10266667 Mo 
atom_frac            0.08888890           0.51111110           0.04969067 S 
atom_frac            0.08888890           0.51111110           0.15564267 S 
atom_frac            0.07777777           0.55555557           0.10266667 Mo 
atom_frac            0.08888890           0.54444443           0.04969067 S 
atom_frac            0.08888890           0.54444443           0.15564267 S 
atom_frac            0.07777777           0.58888890           0.10266667 Mo 
atom_frac            0.08888890           0.57777777           0.04969067 S 
atom_frac            0.08888890           0.57777777           0.15564267 S 
atom_frac            0.07777777           0.62222223           0.10266667 Mo 
atom_frac            0.08888890           0.61111110           0.04969067 S 
atom_frac            0.08888890           0.61111110           0.15564267 S 
atom_frac            0.07777777           0.65555557           0.10266667 Mo 
atom_frac            0.08888890           0.64444443           0.04969067 S 
atom_frac            0.08888890           0.64444443           0.15564267 S 
atom_frac            0.07777777           0.68888890           0.10266667 Mo 
atom_frac            0.08888890           0.67777777           0.04969067 S 
atom_frac            0.08888890           0.67777777           0.15564267 S 
atom_frac            0.07777777           0.72222223           0.10266667 Mo 
atom_frac            0.08888890           0.71111110           0.04969067 S 
atom_frac            0.08888890           0.71111110           0.15564267 S 
atom_frac            0.07777777           0.75555557           0.10266667 Mo 
atom_frac            0.08888890           0.74444443           0.04969067 S 
atom_frac            0.08888890           0.74444443           0.15564267 S 
atom_frac            0.07777777           0.78888890           0.10266667 Mo 
atom_frac            0.08888890           0.77777777           0.04969067 S 
atom_frac            0.08888890           0.77777777           0.15564267 S 
atom_frac            0.07777777           0.82222223           0.10266667 Mo 
atom_frac            0.08888890           0.81111110           0.04969067 S 
atom_frac            0.08888890           0.81111110           0.15564267 S 
atom_frac            0.07777777           0.85555557           0.10266667 Mo 
atom_frac            0.08888890           0.84444443           0.04969067 S 
atom_frac            0.08888890           0.84444443           0.15564267 S 
atom_frac            0.07777777           0.88888890           0.10266667 Mo 
atom_frac            0.08888890           0.87777777           0.04969067 S 
atom_frac            0.08888890           0.87777777           0.15564267 S 
atom_frac            0.07777777           0.92222223           0.10266667 Mo 
atom_frac            0.08888890           0.91111110           0.04969067 S 
atom_frac            0.08888890           0.91111110           0.15564267 S 
atom_frac            0.07777777           0.95555557           0.10266667 Mo 
atom_frac            0.08888890           0.94444443           0.04969067 S 
atom_frac            0.08888890           0.94444443           0.15564267 S 
atom_frac            0.07777777           0.98888890           0.10266667 Mo 
atom_frac            0.08888890           0.97777777           0.04969067 S 
atom_frac            0.08888890           0.97777777           0.15564267 S 
atom_frac            0.11111110           0.02222223           0.10266667 Mo 
atom_frac            0.12222223           0.01111110           0.04969067 S 
atom_frac            0.12222223           0.01111110           0.15564267 S 
atom_frac            0.11111110           0.05555557           0.10266667 Mo 
atom_frac            0.12222223           0.04444443           0.04969067 S 
atom_frac            0.12222223           0.04444443           0.15564267 S 
atom_frac            0.11111110           0.08888890           0.10266667 Mo 
atom_frac            0.12222223           0.07777777           0.04969067 S 
atom_frac            0.12222223           0.07777777           0.15564267 S 
atom_frac            0.11111110           0.12222223           0.10266667 Mo 
atom_frac            0.12222223           0.11111110           0.04969067 S 
atom_frac            0.12222223           0.11111110           0.15564267 S 
atom_frac            0.11111110           0.15555557           0.10266667 Mo 
atom_frac            0.12222223           0.14444443           0.04969067 S 
atom_frac            0.12222223           0.14444443           0.15564267 S 
atom_frac            0.11111110           0.18888890           0.10266667 Mo 
atom_frac            0.12222223           0.17777777           0.04969067 S 
atom_frac            0.12222223           0.17777777           0.15564267 S 
atom_frac            0.11111110           0.22222223           0.10266667 Mo 
atom_frac            0.12222223           0.21111110           0.04969067 S 
atom_frac            0.12222223           0.21111110           0.15564267 S 
atom_frac            0.11111110           0.25555557           0.10266667 Mo 
atom_frac            0.12222223           0.24444443           0.04969067 S 
atom_frac            0.12222223           0.24444443           0.15564267 S 
atom_frac            0.11111110           0.28888890           0.10266667 Mo 
atom_frac            0.12222223           0.27777777           0.04969067 S 
atom_frac            0.12222223           0.27777777           0.15564267 S 
atom_frac            0.11111110           0.32222223           0.10266667 Mo 
atom_frac            0.12222223           0.31111110           0.04969067 S 
atom_frac            0.12222223           0.31111110           0.15564267 S 
atom_frac            0.11111110           0.35555557           0.10266667 Mo 
atom_frac            0.12222223           0.34444443           0.04969067 S 
atom_frac            0.12222223           0.34444443           0.15564267 S 
atom_frac            0.11111110           0.38888890           0.10266667 Mo 
atom_frac            0.12222223           0.37777777           0.04969067 S 
atom_frac            0.12222223           0.37777777           0.15564267 S 
atom_frac            0.11111110           0.42222223           0.10266667 Mo 
atom_frac            0.12222223           0.41111110           0.04969067 S 
atom_frac            0.12222223           0.41111110           0.15564267 S 
atom_frac            0.11111110           0.45555557           0.10266667 Mo 
atom_frac            0.12222223           0.44444443           0.04969067 S 
atom_frac            0.12222223           0.44444443           0.15564267 S 
atom_frac            0.11111110           0.48888890           0.10266667 Mo 
atom_frac            0.12222223           0.47777777           0.04969067 S 
atom_frac            0.12222223           0.47777777           0.15564267 S 
atom_frac            0.11111110           0.52222223           0.10266667 Mo 
atom_frac            0.12222223           0.51111110           0.04969067 S 
atom_frac            0.12222223           0.51111110           0.15564267 S 
atom_frac            0.11111110           0.55555557           0.10266667 Mo 
atom_frac            0.12222223           0.54444443           0.04969067 S 
atom_frac            0.12222223           0.54444443           0.15564267 S 
atom_frac            0.11111110           0.58888890           0.10266667 Mo 
atom_frac            0.12222223           0.57777777           0.04969067 S 
atom_frac            0.12222223           0.57777777           0.15564267 S 
atom_frac            0.11111110           0.62222223           0.10266667 Mo 
atom_frac            0.12222223           0.61111110           0.04969067 S 
atom_frac            0.12222223           0.61111110           0.15564267 S 
atom_frac            0.11111110           0.65555557           0.10266667 Mo 
atom_frac            0.12222223           0.64444443           0.04969067 S 
atom_frac            0.12222223           0.64444443           0.15564267 S 
atom_frac            0.11111110           0.68888890           0.10266667 Mo 
atom_frac            0.12222223           0.67777777           0.04969067 S 
atom_frac            0.12222223           0.67777777           0.15564267 S 
atom_frac            0.11111110           0.72222223           0.10266667 Mo 
atom_frac            0.12222223           0.71111110           0.04969067 S 
atom_frac            0.12222223           0.71111110           0.15564267 S 
atom_frac            0.11111110           0.75555557           0.10266667 Mo 
atom_frac            0.12222223           0.74444443           0.04969067 S 
atom_frac            0.12222223           0.74444443           0.15564267 S 
atom_frac            0.11111110           0.78888890           0.10266667 Mo 
atom_frac            0.12222223           0.77777777           0.04969067 S 
atom_frac            0.12222223           0.77777777           0.15564267 S 
atom_frac            0.11111110           0.82222223           0.10266667 Mo 
atom_frac            0.12222223           0.81111110           0.04969067 S 
atom_frac            0.12222223           0.81111110           0.15564267 S 
atom_frac            0.11111110           0.85555557           0.10266667 Mo 
atom_frac            0.12222223           0.84444443           0.04969067 S 
atom_frac            0.12222223           0.84444443           0.15564267 S 
atom_frac            0.11111110           0.88888890           0.10266667 Mo 
atom_frac            0.12222223           0.87777777           0.04969067 S 
atom_frac            0.12222223           0.87777777           0.15564267 S 
atom_frac            0.11111110           0.92222223           0.10266667 Mo 
atom_frac            0.12222223           0.91111110           0.04969067 S 
atom_frac            0.12222223           0.91111110           0.15564267 S 
atom_frac            0.11111110           0.95555557           0.10266667 Mo 
atom_frac            0.12222223           0.94444443           0.04969067 S 
atom_frac            0.12222223           0.94444443           0.15564267 S 
atom_frac            0.11111110           0.98888890           0.10266667 Mo 
atom_frac            0.12222223           0.97777777           0.04969067 S 
atom_frac            0.12222223           0.97777777           0.15564267 S 
atom_frac            0.14444443           0.02222223           0.10266667 Mo 
atom_frac            0.15555557           0.01111110           0.04969067 S 
atom_frac            0.15555557           0.01111110           0.15564267 S 
atom_frac            0.14444443           0.05555557           0.10266667 Mo 
atom_frac            0.15555557           0.04444443           0.04969067 S 
atom_frac            0.15555557           0.04444443           0.15564267 S 
atom_frac            0.14444443           0.08888890           0.10266667 Mo 
atom_frac            0.15555557           0.07777777           0.04969067 S 
atom_frac            0.15555557           0.07777777           0.15564267 S 
atom_frac            0.14444443           0.12222223           0.10266667 Mo 
atom_frac            0.15555557           0.11111110           0.04969067 S 
atom_frac            0.15555557           0.11111110           0.15564267 S 
atom_frac            0.14444443           0.15555557           0.10266667 Mo 
atom_frac            0.15555557           0.14444443           0.04969067 S 
atom_frac            0.15555557           0.14444443           0.15564267 S 
atom_frac            0.14444443           0.18888890           0.10266667 Mo 
atom_frac            0.15555557           0.17777777           0.04969067 S 
atom_frac            0.15555557           0.17777777           0.15564267 S 
atom_frac            0.14444443           0.22222223           0.10266667 Mo 
atom_frac            0.15555557           0.21111110           0.04969067 S 
atom_frac            0.15555557           0.21111110           0.15564267 S 
atom_frac            0.14444443           0.25555557           0.10266667 Mo 
atom_frac            0.15555557           0.24444443           0.04969067 S 
atom_frac            0.15555557           0.24444443           0.15564267 S 