lattice_vector           15.80200000         -27.36990000           0.00000000
lattice_vector           15.80200000          27.36990000           0.00000000
lattice_vector            0.00000000           0.00000000          30.00000000

atom_frac            0.03333330           0.06666670           0.10266667 Mo 
atom_frac            0.06666670           0.03333330           0.04969067 S 
atom_frac            0.06666670           0.03333330           0.15564267 S 
atom_frac            0.03333330           0.16666670           0.10266667 Mo 
atom_frac            0.06666670           0.13333330           0.04969067 S 
atom_frac            0.06666670           0.13333330           0.15564267 S 
atom_frac            0.03333330           0.26666670           0.10266667 Mo 
atom_frac            0.06666670           0.23333330           0.04969067 S 
atom_frac            0.06666670           0.23333330           0.15564267 S 
atom_frac            0.03333330           0.36666670           0.10266667 Mo 
atom_frac            0.06666670           0.33333330           0.04969067 S 
atom_frac            0.06666670           0.33333330           0.15564267 S 
atom_frac            0.03333330           0.46666670           0.10266667 Mo 
atom_frac            0.06666670           0.43333330           0.04969067 S 
atom_frac            0.06666670           0.43333330           0.15564267 S 
atom_frac            0.03333330           0.56666670           0.10266667 Mo 
atom_frac            0.06666670           0.53333330           0.04969067 S 
atom_frac            0.06666670           0.53333330           0.15564267 S 
atom_frac            0.03333330           0.66666670           0.10266667 Mo 
atom_frac            0.06666670           0.63333330           0.04969067 S 
atom_frac            0.06666670           0.63333330           0.15564267 S 
atom_frac            0.03333330           0.76666670           0.10266667 Mo 
atom_frac            0.06666670           0.73333330           0.04969067 S 
atom_frac            0.06666670           0.73333330           0.15564267 S 
atom_frac            0.03333330           0.86666670           0.10266667 Mo 
atom_frac            0.06666670           0.83333330           0.04969067 S 
atom_frac            0.06666670           0.83333330           0.15564267 S 
atom_frac            0.03333330           0.96666670           0.10266667 Mo 
atom_frac            0.06666670           0.93333330           0.04969067 S 
atom_frac            0.06666670           0.93333330           0.15564267 S 
atom_frac            0.13333330           0.06666670           0.10266667 Mo 
atom_frac            0.16666670           0.03333330           0.04969067 S 
atom_frac            0.16666670           0.03333330           0.15564267 S 
atom_frac            0.13333330           0.16666670           0.10266667 Mo 
atom_frac            0.16666670           0.13333330           0.04969067 S 
atom_frac            0.16666670           0.13333330           0.15564267 S 
atom_frac            0.13333330           0.26666670           0.10266667 Mo 
atom_frac            0.16666670           0.23333330           0.04969067 S 
atom_frac            0.16666670           0.23333330           0.15564267 S 
atom_frac            0.13333330           0.36666670           0.10266667 Mo 
atom_frac            0.16666670           0.33333330           0.04969067 S 
atom_frac            0.16666670           0.33333330           0.15564267 S 
atom_frac            0.13333330           0.46666670           0.10266667 Mo 
atom_frac            0.16666670           0.43333330           0.04969067 S 
atom_frac            0.16666670           0.43333330           0.15564267 S 
atom_frac            0.13333330           0.56666670           0.10266667 Mo 
atom_frac            0.16666670           0.53333330           0.04969067 S 
atom_frac            0.16666670           0.53333330           0.15564267 S 
atom_frac            0.13333330           0.66666670           0.10266667 Mo 
atom_frac            0.16666670           0.63333330           0.04969067 S 
atom_frac            0.16666670           0.63333330           0.15564267 S 
atom_frac            0.13333330           0.76666670           0.10266667 Mo 
atom_frac            0.16666670           0.73333330           0.04969067 S 
atom_frac            0.16666670           0.73333330           0.15564267 S 
atom_frac            0.13333330           0.86666670           0.10266667 Mo 
atom_frac            0.16666670           0.83333330           0.04969067 S 
atom_frac            0.16666670           0.83333330           0.15564267 S 
atom_frac            0.13333330           0.96666670           0.10266667 Mo 
atom_frac            0.16666670           0.93333330           0.04969067 S 
atom_frac            0.16666670           0.93333330           0.15564267 S 
atom_frac            0.23333330           0.06666670           0.10266667 Mo 
atom_frac            0.26666670           0.03333330           0.04969067 S 
atom_frac            0.26666670           0.03333330           0.15564267 S 
atom_frac            0.23333330           0.16666670           0.10266667 Mo 
atom_frac            0.26666670           0.13333330           0.04969067 S 
atom_frac            0.26666670           0.13333330           0.15564267 S 
atom_frac            0.23333330           0.26666670           0.10266667 Mo 
atom_frac            0.26666670           0.23333330           0.04969067 S 
atom_frac            0.26666670           0.23333330           0.15564267 S 
atom_frac            0.23333330           0.36666670           0.10266667 Mo 
atom_frac            0.26666670           0.33333330           0.04969067 S 
atom_frac            0.26666670           0.33333330           0.15564267 S 
atom_frac            0.23333330           0.46666670           0.10266667 Mo 
atom_frac            0.26666670           0.43333330           0.04969067 S 
atom_frac            0.26666670           0.43333330           0.15564267 S 
atom_frac            0.23333330           0.56666670           0.10266667 Mo 
atom_frac            0.26666670           0.53333330           0.04969067 S 
atom_frac            0.26666670           0.53333330           0.15564267 S 
atom_frac            0.23333330           0.66666670           0.10266667 Mo 
atom_frac            0.26666670           0.63333330           0.04969067 S 
atom_frac            0.26666670           0.63333330           0.15564267 S 
atom_frac            0.23333330           0.76666670           0.10266667 Mo 
atom_frac            0.26666670           0.73333330           0.04969067 S 
atom_frac            0.26666670           0.73333330           0.15564267 S 
atom_frac            0.23333330           0.86666670           0.10266667 Mo 
atom_frac            0.26666670           0.83333330           0.04969067 S 
atom_frac            0.26666670           0.83333330           0.15564267 S 
atom_frac            0.23333330           0.96666670           0.10266667 Mo 
atom_frac            0.26666670           0.93333330           0.04969067 S 
atom_frac            0.26666670           0.93333330           0.15564267 S 
atom_frac            0.33333330           0.06666670           0.10266667 Mo 
atom_frac            0.36666670           0.03333330           0.04969067 S 
atom_frac            0.36666670           0.03333330           0.15564267 S 
atom_frac            0.33333330           0.16666670           0.10266667 Mo 
atom_frac            0.36666670           0.13333330           0.04969067 S 
atom_frac            0.36666670           0.13333330           0.15564267 S 
atom_frac            0.33333330           0.26666670           0.10266667 Mo 
atom_frac            0.36666670           0.23333330           0.04969067 S 
atom_frac            0.36666670           0.23333330           0.15564267 S 
atom_frac            0.33333330           0.36666670           0.10266667 Mo 
atom_frac            0.36666670           0.33333330           0.04969067 S 
atom_frac            0.36666670           0.33333330           0.15564267 S 
atom_frac            0.33333330           0.46666670           0.10266667 Mo 
atom_frac            0.36666670           0.43333330           0.04969067 S 
atom_frac            0.36666670           0.43333330           0.15564267 S 
atom_frac            0.33333330           0.56666670           0.10266667 Mo 
atom_frac            0.36666670           0.53333330           0.04969067 S 
atom_frac            0.36666670           0.53333330           0.15564267 S 
atom_frac            0.33333330           0.66666670           0.10266667 Mo 
atom_frac            0.36666670           0.63333330           0.04969067 S 
atom_frac            0.36666670           0.63333330           0.15564267 S 
atom_frac            0.33333330           0.76666670           0.10266667 Mo 
atom_frac            0.36666670           0.73333330           0.04969067 S 
atom_frac            0.36666670           0.73333330           0.15564267 S 
atom_frac            0.33333330           0.86666670           0.10266667 Mo 
atom_frac            0.36666670           0.83333330           0.04969067 S 
atom_frac            0.36666670           0.83333330           0.15564267 S 
atom_frac            0.33333330           0.96666670           0.10266667 Mo 
atom_frac            0.36666670           0.93333330           0.04969067 S 
atom_frac            0.36666670           0.93333330           0.15564267 S 
atom_frac            0.43333330           0.06666670           0.10266667 Mo 
atom_frac            0.46666670           0.03333330           0.04969067 S 
atom_frac            0.46666670           0.03333330           0.15564267 S 
atom_frac            0.43333330           0.16666670           0.10266667 Mo 
atom_frac            0.46666670           0.13333330           0.04969067 S 
atom_frac            0.46666670           0.13333330           0.15564267 S 
atom_frac            0.43333330           0.26666670           0.10266667 Mo 
atom_frac            0.46666670           0.23333330           0.04969067 S 
atom_frac            0.46666670           0.23333330           0.15564267 S 
atom_frac            0.43333330           0.36666670           0.10266667 Mo 
atom_frac            0.46666670           0.33333330           0.04969067 S 
atom_frac            0.46666670           0.33333330           0.15564267 S 
atom_frac            0.43333330           0.46666670           0.10266667 Mo 
atom_frac            0.46666670           0.43333330           0.04969067 S 
atom_frac            0.46666670           0.43333330           0.15564267 S 
atom_frac            0.43333330           0.56666670           0.10266667 Mo 
atom_frac            0.46666670           0.53333330           0.04969067 S 
atom_frac            0.46666670           0.53333330           0.15564267 S 
atom_frac            0.43333330           0.66666670           0.10266667 Mo 
atom_frac            0.46666670           0.63333330           0.04969067 S 
atom_frac            0.46666670           0.63333330           0.15564267 S 
atom_frac            0.43333330           0.76666670           0.10266667 Mo 
atom_frac            0.46666670           0.73333330           0.04969067 S 
atom_frac            0.46666670           0.73333330           0.15564267 S 
atom_frac            0.43333330           0.86666670           0.10266667 Mo 
atom_frac            0.46666670           0.83333330           0.04969067 S 
atom_frac            0.46666670           0.83333330           0.15564267 S 
atom_frac            0.43333330           0.96666670           0.10266667 Mo 
atom_frac            0.46666670           0.93333330           0.04969067 S 
atom_frac            0.46666670           0.93333330           0.15564267 S 
atom_frac            0.53333330           0.06666670           0.10266667 Mo 
atom_frac            0.56666670           0.03333330           0.04969067 S 
atom_frac            0.56666670           0.03333330           0.15564267 S 
atom_frac            0.53333330           0.16666670           0.10266667 Mo 
atom_frac            0.56666670           0.13333330           0.04969067 S 
atom_frac            0.56666670           0.13333330           0.15564267 S 
atom_frac            0.53333330           0.26666670           0.10266667 Mo 
atom_frac            0.56666670           0.23333330           0.04969067 S 
atom_frac            0.56666670           0.23333330           0.15564267 S 
atom_frac            0.53333330           0.36666670           0.10266667 Mo 
atom_frac            0.56666670           0.33333330           0.04969067 S 
atom_frac            0.56666670           0.33333330           0.15564267 S 
atom_frac            0.53333330           0.46666670           0.10266667 Mo 
atom_frac            0.56666670           0.43333330           0.04969067 S 
atom_frac            0.56666670           0.43333330           0.15564267 S 
atom_frac            0.53333330           0.56666670           0.10266667 Mo 
atom_frac            0.56666670           0.53333330           0.04969067 S 
atom_frac            0.56666670           0.53333330           0.15564267 S 
atom_frac            0.53333330           0.66666670           0.10266667 Mo 
atom_frac            0.56666670           0.63333330           0.04969067 S 
atom_frac            0.56666670           0.63333330           0.15564267 S 
atom_frac            0.53333330           0.76666670           0.10266667 Mo 
atom_frac            0.56666670           0.73333330           0.04969067 S 
atom_frac            0.56666670           0.73333330           0.15564267 S 
atom_frac            0.53333330           0.86666670           0.10266667 Mo 
atom_frac            0.56666670           0.83333330           0.04969067 S 
atom_frac            0.56666670           0.83333330           0.15564267 S 
atom_frac            0.53333330           0.96666670           0.10266667 Mo 
atom_frac            0.56666670           0.93333330           0.04969067 S 
atom_frac            0.56666670           0.93333330           0.15564267 S 
atom_frac            0.63333330           0.06666670           0.10266667 Mo 
atom_frac            0.66666670           0.03333330           0.04969067 S 
atom_frac            0.66666670           0.03333330           0.15564267 S 
atom_frac            0.63333330           0.16666670           0.10266667 Mo 
atom_frac            0.66666670           0.13333330           0.04969067 S 
atom_frac            0.66666670           0.13333330           0.15564267 S 
atom_frac            0.63333330           0.26666670           0.10266667 Mo 
atom_frac            0.66666670           0.23333330           0.04969067 S 
atom_frac            0.66666670           0.23333330           0.15564267 S 
atom_frac            0.63333330           0.36666670           0.10266667 Mo 
atom_frac            0.66666670           0.33333330           0.04969067 S 
atom_frac            0.66666670           0.33333330           0.15564267 S 
atom_frac            0.63333330           0.46666670           0.10266667 Mo 
atom_frac            0.66666670           0.43333330           0.04969067 S 
atom_frac            0.66666670           0.43333330           0.15564267 S 
atom_frac            0.63333330           0.56666670           0.10266667 Mo 
atom_frac            0.66666670           0.53333330           0.04969067 S 
atom_frac            0.66666670           0.53333330           0.15564267 S 
atom_frac            0.63333330           0.66666670           0.10266667 Mo 
atom_frac            0.66666670           0.63333330           0.04969067 S 
atom_frac            0.66666670           0.63333330           0.15564267 S 
atom_frac            0.63333330           0.76666670           0.10266667 Mo 
atom_frac            0.66666670           0.73333330           0.04969067 S 
atom_frac            0.66666670           0.73333330           0.15564267 S 
atom_frac            0.63333330           0.86666670           0.10266667 Mo 
atom_frac            0.66666670           0.83333330           0.04969067 S 
atom_frac            0.66666670           0.83333330           0.15564267 S 
atom_frac            0.63333330           0.96666670           0.10266667 Mo 
atom_frac            0.66666670           0.93333330           0.04969067 S 
atom_frac            0.66666670           0.93333330           0.15564267 S 
atom_frac            0.73333330           0.06666670           0.10266667 Mo 
atom_frac            0.76666670           0.03333330           0.04969067 S 
atom_frac            0.76666670           0.03333330           0.15564267 S 
atom_frac            0.73333330           0.16666670           0.10266667 Mo 
atom_frac            0.76666670           0.13333330           0.04969067 S 
atom_frac            0.76666670           0.13333330           0.15564267 S 
atom_frac            0.73333330           0.26666670           0.10266667 Mo 
atom_frac            0.76666670           0.23333330           0.04969067 S 
atom_frac            0.76666670           0.23333330           0.15564267 S 
atom_frac            0.73333330           0.36666670           0.10266667 Mo 
atom_frac            0.76666670           0.33333330           0.04969067 S 
atom_frac            0.76666670           0.33333330           0.15564267 S 
atom_frac            0.73333330           0.46666670           0.10266667 Mo 
atom_frac            0.76666670           0.43333330           0.04969067 S 
atom_frac            0.76666670           0.43333330           0.15564267 S 
atom_frac            0.73333330           0.56666670           0.10266667 Mo 
atom_frac            0.76666670           0.53333330           0.04969067 S 
atom_frac            0.76666670           0.53333330           0.15564267 S 
atom_frac            0.73333330           0.66666670           0.10266667 Mo 
atom_frac            0.76666670           0.63333330           0.04969067 S 
atom_frac            0.76666670           0.63333330           0.15564267 S 
atom_frac            0.73333330           0.76666670           0.10266667 Mo 
atom_frac            0.76666670           0.73333330           0.04969067 S 
atom_frac            0.76666670           0.73333330           0.15564267 S 
atom_frac            0.73333330           0.86666670           0.10266667 Mo 
atom_frac            0.76666670           0.83333330           0.04969067 S 
atom_frac            0.76666670           0.83333330           0.15564267 S 
atom_frac            0.73333330           0.96666670           0.10266667 Mo 
atom_frac            0.76666670           0.93333330           0.04969067 S 
atom_frac            0.76666670           0.93333330           0.15564267 S 
atom_frac            0.83333330           0.06666670           0.10266667 Mo 
atom_frac            0.86666670           0.03333330           0.04969067 S 
atom_frac            0.86666670           0.03333330           0.15564267 S 
atom_frac            0.83333330           0.16666670           0.10266667 Mo 
atom_frac            0.86666670           0.13333330           0.04969067 S 
atom_frac            0.86666670           0.13333330           0.15564267 S 
atom_frac            0.83333330           0.26666670           0.10266667 Mo 
atom_frac            0.86666670           0.23333330           0.04969067 S 
atom_frac            0.86666670           0.23333330           0.15564267 S 
atom_frac            0.83333330           0.36666670           0.10266667 Mo 
atom_frac            0.86666670           0.33333330           0.04969067 S 
atom_frac            0.86666670           0.33333330           0.15564267 S 
atom_frac            0.83333330           0.46666670           0.10266667 Mo 
atom_frac            0.86666670           0.43333330           0.04969067 S 
atom_frac            0.86666670           0.43333330           0.15564267 S 
atom_frac            0.83333330           0.56666670           0.10266667 Mo 
atom_frac            0.86666670           0.53333330           0.04969067 S 
atom_frac            0.86666670           0.53333330           0.15564267 S 
atom_frac            0.83333330           0.66666670           0.10266667 Mo 
atom_frac            0.86666670           0.63333330           0.04969067 S 
atom_frac            0.86666670           0.63333330           0.15564267 S 
atom_frac            0.83333330           0.76666670           0.10266667 Mo 
atom_frac            0.86666670           0.73333330           0.04969067 S 
atom_frac            0.86666670           0.73333330           0.15564267 S 
atom_frac            0.83333330           0.86666670           0.10266667 Mo 
atom_frac            0.86666670           0.83333330           0.04969067 S 
atom_frac            0.86666670           0.83333330           0.15564267 S 
atom_frac            0.83333330           0.96666670           0.10266667 Mo 
atom_frac            0.86666670           0.93333330           0.04969067 S 
atom_frac            0.86666670           0.93333330           0.15564267 S 
atom_frac            0.93333330           0.06666670           0.10266667 Mo 
atom_frac            0.96666670           0.03333330           0.04969067 S 
atom_frac            0.96666670           0.03333330           0.15564267 S 
atom_frac            0.93333330           0.16666670           0.10266667 Mo 
atom_frac            0.96666670           0.13333330           0.04969067 S 
atom_frac            0.96666670           0.13333330           0.15564267 S 
atom_frac            0.93333330           0.26666670           0.10266667 Mo 
atom_frac            0.96666670           0.23333330           0.04969067 S 
atom_frac            0.96666670           0.23333330           0.15564267 S 
atom_frac            0.93333330           0.36666670           0.10266667 Mo 
atom_frac            0.96666670           0.33333330           0.04969067 S 
atom_frac            0.96666670           0.33333330           0.15564267 S 
atom_frac            0.93333330           0.46666670           0.10266667 Mo 
atom_frac            0.96666670           0.43333330           0.04969067 S 
atom_frac            0.96666670           0.43333330           0.15564267 S 
atom_frac            0.93333330           0.56666670           0.10266667 Mo 
atom_frac            0.96666670           0.53333330           0.04969067 S 
atom_frac            0.96666670           0.53333330           0.15564267 S 
atom_frac            0.93333330           0.66666670           0.10266667 Mo 
atom_frac            0.96666670           0.63333330           0.04969067 S 
atom_frac            0.96666670           0.63333330           0.15564267 S 
atom_frac            0.93333330           0.76666670           0.10266667 Mo 
atom_frac            0.96666670           0.73333330           0.04969067 S 
atom_frac            0.96666670           0.73333330           0.15564267 S 
atom_frac            0.93333330           0.86666670           0.10266667 Mo 
atom_frac            0.96666670           0.83333330           0.04969067 S 
atom_frac            0.96666670           0.83333330           0.15564267 S 
atom_frac            0.93333330           0.96666670           0.10266667 Mo 
atom_frac            0.96666670           0.93333330           0.04969067 S 
atom_frac            0.96666670           0.93333330           0.15564267 S 
