lattice_vector           63.20800000        -109.47960000           0.00000000
lattice_vector           63.20800000         109.47960000           0.00000000
lattice_vector            0.00000000           0.00000000          30.00000000

atom_frac            0.00833332           0.01666667           0.10266667 Mo 
atom_frac            0.01666667           0.00833332           0.04969067 S 
atom_frac            0.01666667           0.00833332           0.15564267 S 
atom_frac            0.00833332           0.04166668           0.10266667 Mo 
atom_frac            0.01666667           0.03333332           0.04969067 S 
atom_frac            0.01666667           0.03333332           0.15564267 S 
atom_frac            0.00833332           0.06666668           0.10266667 Mo 
atom_frac            0.01666667           0.05833333           0.04969067 S 
atom_frac            0.01666667           0.05833333           0.15564267 S 
atom_frac            0.00833332           0.09166668           0.10266667 Mo 
atom_frac            0.01666667           0.08333332           0.04969067 S 
atom_frac            0.01666667           0.08333332           0.15564267 S 
atom_frac            0.00833332           0.11666667           0.10266667 Mo 
atom_frac            0.01666667           0.10833333           0.04969067 S 
atom_frac            0.01666667           0.10833333           0.15564267 S 
atom_frac            0.00833332           0.14166667           0.10266667 Mo 
atom_frac            0.01666667           0.13333333           0.04969067 S 
atom_frac            0.01666667           0.13333333           0.15564267 S 
atom_frac            0.00833332           0.16666667           0.10266667 Mo 
atom_frac            0.01666667           0.15833332           0.04969067 S 
atom_frac            0.01666667           0.15833332           0.15564267 S 
atom_frac            0.00833332           0.19166667           0.10266667 Mo 
atom_frac            0.01666667           0.18333332           0.04969067 S 
atom_frac            0.01666667           0.18333332           0.15564267 S 
atom_frac            0.00833332           0.21666668           0.10266667 Mo 
atom_frac            0.01666667           0.20833333           0.04969067 S 
atom_frac            0.01666667           0.20833333           0.15564267 S 
atom_frac            0.00833332           0.24166667           0.10266667 Mo 
atom_frac            0.01666667           0.23333333           0.04969067 S 
atom_frac            0.01666667           0.23333333           0.15564267 S 
atom_frac            0.00833332           0.26666668           0.10266667 Mo 
atom_frac            0.01666667           0.25833333           0.04969067 S 
atom_frac            0.01666667           0.25833333           0.15564267 S 
atom_frac            0.00833332           0.29166668           0.10266667 Mo 
atom_frac            0.01666667           0.28333333           0.04969067 S 
atom_frac            0.01666667           0.28333333           0.15564267 S 
atom_frac            0.00833332           0.31666668           0.10266667 Mo 
atom_frac            0.01666667           0.30833332           0.04969067 S 
atom_frac            0.01666667           0.30833332           0.15564267 S 
atom_frac            0.00833332           0.34166668           0.10266667 Mo 
atom_frac            0.01666667           0.33333333           0.04969067 S 
atom_frac            0.01666667           0.33333333           0.15564267 S 
atom_frac            0.00833332           0.36666667           0.10266667 Mo 
atom_frac            0.01666667           0.35833332           0.04969067 S 
atom_frac            0.01666667           0.35833332           0.15564267 S 
atom_frac            0.00833332           0.39166668           0.10266667 Mo 
atom_frac            0.01666667           0.38333333           0.04969067 S 
atom_frac            0.01666667           0.38333333           0.15564267 S 
atom_frac            0.00833332           0.41666668           0.10266667 Mo 
atom_frac            0.01666667           0.40833333           0.04969067 S 
atom_frac            0.01666667           0.40833333           0.15564267 S 
atom_frac            0.00833332           0.44166668           0.10266667 Mo 
atom_frac            0.01666667           0.43333332           0.04969067 S 
atom_frac            0.01666667           0.43333332           0.15564267 S 
atom_frac            0.00833332           0.46666668           0.10266667 Mo 
atom_frac            0.01666667           0.45833333           0.04969067 S 
atom_frac            0.01666667           0.45833333           0.15564267 S 
atom_frac            0.00833332           0.49166667           0.10266667 Mo 
atom_frac            0.01666667           0.48333332           0.04969067 S 
atom_frac            0.01666667           0.48333332           0.15564267 S 
atom_frac            0.00833332           0.51666667           0.10266667 Mo 
atom_frac            0.01666667           0.50833332           0.04969067 S 
atom_frac            0.01666667           0.50833332           0.15564267 S 
atom_frac            0.00833332           0.54166667           0.10266667 Mo 
atom_frac            0.01666667           0.53333332           0.04969067 S 
atom_frac            0.01666667           0.53333332           0.15564267 S 
atom_frac            0.00833332           0.56666668           0.10266667 Mo 
atom_frac            0.01666667           0.55833332           0.04969067 S 
atom_frac            0.01666667           0.55833332           0.15564267 S 
atom_frac            0.00833332           0.59166667           0.10266667 Mo 
atom_frac            0.01666667           0.58333332           0.04969067 S 
atom_frac            0.01666667           0.58333332           0.15564267 S 
atom_frac            0.00833332           0.61666667           0.10266667 Mo 
atom_frac            0.01666667           0.60833332           0.04969067 S 
atom_frac            0.01666667           0.60833332           0.15564267 S 
atom_frac            0.00833332           0.64166667           0.10266667 Mo 
atom_frac            0.01666667           0.63333332           0.04969067 S 
atom_frac            0.01666667           0.63333332           0.15564267 S 
atom_frac            0.00833332           0.66666667           0.10266667 Mo 
atom_frac            0.01666667           0.65833332           0.04969067 S 
atom_frac            0.01666667           0.65833332           0.15564267 S 
atom_frac            0.00833332           0.69166668           0.10266667 Mo 
atom_frac            0.01666667           0.68333332           0.04969067 S 
atom_frac            0.01666667           0.68333332           0.15564267 S 
atom_frac            0.00833332           0.71666667           0.10266667 Mo 
atom_frac            0.01666667           0.70833332           0.04969067 S 
atom_frac            0.01666667           0.70833332           0.15564267 S 
atom_frac            0.00833332           0.74166667           0.10266667 Mo 
atom_frac            0.01666667           0.73333332           0.04969067 S 
atom_frac            0.01666667           0.73333332           0.15564267 S 
atom_frac            0.00833332           0.76666667           0.10266667 Mo 
atom_frac            0.01666667           0.75833332           0.04969067 S 
atom_frac            0.01666667           0.75833332           0.15564267 S 
atom_frac            0.00833332           0.79166667           0.10266667 Mo 
atom_frac            0.01666667           0.78333332           0.04969067 S 
atom_frac            0.01666667           0.78333332           0.15564267 S 
atom_frac            0.00833332           0.81666668           0.10266667 Mo 
atom_frac            0.01666667           0.80833332           0.04969067 S 
atom_frac            0.01666667           0.80833332           0.15564267 S 
atom_frac            0.00833332           0.84166667           0.10266667 Mo 
atom_frac            0.01666667           0.83333332           0.04969067 S 
atom_frac            0.01666667           0.83333332           0.15564267 S 
atom_frac            0.00833332           0.86666667           0.10266667 Mo 
atom_frac            0.01666667           0.85833332           0.04969067 S 
atom_frac            0.01666667           0.85833332           0.15564267 S 
atom_frac            0.00833332           0.89166667           0.10266667 Mo 
atom_frac            0.01666667           0.88333332           0.04969067 S 
atom_frac            0.01666667           0.88333332           0.15564267 S 
atom_frac            0.00833332           0.91666667           0.10266667 Mo 
atom_frac            0.01666667           0.90833332           0.04969067 S 
atom_frac            0.01666667           0.90833332           0.15564267 S 
atom_frac            0.00833332           0.94166668           0.10266667 Mo 
atom_frac            0.01666667           0.93333332           0.04969067 S 
atom_frac            0.01666667           0.93333332           0.15564267 S 
atom_frac            0.00833332           0.96666667           0.10266667 Mo 
atom_frac            0.01666667           0.95833332           0.04969067 S 
atom_frac            0.01666667           0.95833332           0.15564267 S 
atom_frac            0.00833332           0.99166667           0.10266667 Mo 
atom_frac            0.01666667           0.98333332           0.04969067 S 
atom_frac            0.01666667           0.98333332           0.15564267 S 
atom_frac            0.03333332           0.01666667           0.10266667 Mo 
atom_frac            0.04166668           0.00833332           0.04969067 S 
atom_frac            0.04166668           0.00833332           0.15564267 S 
atom_frac            0.03333332           0.04166668           0.10266667 Mo 
atom_frac            0.04166668           0.03333332           0.04969067 S 
atom_frac            0.04166668           0.03333332           0.15564267 S 
atom_frac            0.03333332           0.06666668           0.10266667 Mo 
atom_frac            0.04166668           0.05833333           0.04969067 S 
atom_frac            0.04166668           0.05833333           0.15564267 S 
atom_frac            0.03333332           0.09166668           0.10266667 Mo 
atom_frac            0.04166668           0.08333332           0.04969067 S 
atom_frac            0.04166668           0.08333332           0.15564267 S 
atom_frac            0.03333332           0.11666667           0.10266667 Mo 
atom_frac            0.04166668           0.10833333           0.04969067 S 
atom_frac            0.04166668           0.10833333           0.15564267 S 
atom_frac            0.03333332           0.14166667           0.10266667 Mo 
atom_frac            0.04166668           0.13333333           0.04969067 S 
atom_frac            0.04166668           0.13333333           0.15564267 S 
atom_frac            0.03333332           0.16666667           0.10266667 Mo 
atom_frac            0.04166668           0.15833332           0.04969067 S 
atom_frac            0.04166668           0.15833332           0.15564267 S 
atom_frac            0.03333332           0.19166667           0.10266667 Mo 
atom_frac            0.04166668           0.18333332           0.04969067 S 
atom_frac            0.04166668           0.18333332           0.15564267 S 
atom_frac            0.03333332           0.21666668           0.10266667 Mo 
atom_frac            0.04166668           0.20833333           0.04969067 S 
atom_frac            0.04166668           0.20833333           0.15564267 S 
atom_frac            0.03333332           0.24166667           0.10266667 Mo 
atom_frac            0.04166668           0.23333333           0.04969067 S 
atom_frac            0.04166668           0.23333333           0.15564267 S 
atom_frac            0.03333332           0.26666668           0.10266667 Mo 
atom_frac            0.04166668           0.25833333           0.04969067 S 
atom_frac            0.04166668           0.25833333           0.15564267 S 
atom_frac            0.03333332           0.29166668           0.10266667 Mo 
atom_frac            0.04166668           0.28333333           0.04969067 S 
atom_frac            0.04166668           0.28333333           0.15564267 S 
atom_frac            0.03333332           0.31666668           0.10266667 Mo 
atom_frac            0.04166668           0.30833332           0.04969067 S 
atom_frac            0.04166668           0.30833332           0.15564267 S 
atom_frac            0.03333332           0.34166668           0.10266667 Mo 
atom_frac            0.04166668           0.33333333           0.04969067 S 
atom_frac            0.04166668           0.33333333           0.15564267 S 
atom_frac            0.03333332           0.36666667           0.10266667 Mo 
atom_frac            0.04166668           0.35833332           0.04969067 S 
atom_frac            0.04166668           0.35833332           0.15564267 S 
atom_frac            0.03333332           0.39166668           0.10266667 Mo 
atom_frac            0.04166668           0.38333333           0.04969067 S 
atom_frac            0.04166668           0.38333333           0.15564267 S 
atom_frac            0.03333332           0.41666668           0.10266667 Mo 
atom_frac            0.04166668           0.40833333           0.04969067 S 
atom_frac            0.04166668           0.40833333           0.15564267 S 
atom_frac            0.03333332           0.44166668           0.10266667 Mo 
atom_frac            0.04166668           0.43333332           0.04969067 S 
atom_frac            0.04166668           0.43333332           0.15564267 S 
atom_frac            0.03333332           0.46666668           0.10266667 Mo 
atom_frac            0.04166668           0.45833333           0.04969067 S 
atom_frac            0.04166668           0.45833333           0.15564267 S 
atom_frac            0.03333332           0.49166667           0.10266667 Mo 
atom_frac            0.04166668           0.48333332           0.04969067 S 
atom_frac            0.04166668           0.48333332           0.15564267 S 
atom_frac            0.03333332           0.51666667           0.10266667 Mo 
atom_frac            0.04166668           0.50833332           0.04969067 S 
atom_frac            0.04166668           0.50833332           0.15564267 S 
atom_frac            0.03333332           0.54166667           0.10266667 Mo 
atom_frac            0.04166668           0.53333332           0.04969067 S 
atom_frac            0.04166668           0.53333332           0.15564267 S 
atom_frac            0.03333332           0.56666668           0.10266667 Mo 
atom_frac            0.04166668           0.55833332           0.04969067 S 
atom_frac            0.04166668           0.55833332           0.15564267 S 
atom_frac            0.03333332           0.59166667           0.10266667 Mo 
atom_frac            0.04166668           0.58333332           0.04969067 S 
atom_frac            0.04166668           0.58333332           0.15564267 S 
atom_frac            0.03333332           0.61666667           0.10266667 Mo 
atom_frac            0.04166668           0.60833332           0.04969067 S 
atom_frac            0.04166668           0.60833332           0.15564267 S 
atom_frac            0.03333332           0.64166667           0.10266667 Mo 
atom_frac            0.04166668           0.63333332           0.04969067 S 
atom_frac            0.04166668           0.63333332           0.15564267 S 
atom_frac            0.03333332           0.66666667           0.10266667 Mo 
atom_frac            0.04166668           0.65833332           0.04969067 S 
atom_frac            0.04166668           0.65833332           0.15564267 S 
atom_frac            0.03333332           0.69166668           0.10266667 Mo 
atom_frac            0.04166668           0.68333332           0.04969067 S 
atom_frac            0.04166668           0.68333332           0.15564267 S 
atom_frac            0.03333332           0.71666667           0.10266667 Mo 
atom_frac            0.04166668           0.70833332           0.04969067 S 
atom_frac            0.04166668           0.70833332           0.15564267 S 
atom_frac            0.03333332           0.74166667           0.10266667 Mo 
atom_frac            0.04166668           0.73333332           0.04969067 S 
atom_frac            0.04166668           0.73333332           0.15564267 S 
atom_frac            0.03333332           0.76666667           0.10266667 Mo 
atom_frac            0.04166668           0.75833332           0.04969067 S 
atom_frac            0.04166668           0.75833332           0.15564267 S 
atom_frac            0.03333332           0.79166667           0.10266667 Mo 
atom_frac            0.04166668           0.78333332           0.04969067 S 
atom_frac            0.04166668           0.78333332           0.15564267 S 
atom_frac            0.03333332           0.81666668           0.10266667 Mo 
atom_frac            0.04166668           0.80833332           0.04969067 S 
atom_frac            0.04166668           0.80833332           0.15564267 S 
atom_frac            0.03333332           0.84166667           0.10266667 Mo 
atom_frac            0.04166668           0.83333332           0.04969067 S 
atom_frac            0.04166668           0.83333332           0.15564267 S 
atom_frac            0.03333332           0.86666667           0.10266667 Mo 
atom_frac            0.04166668           0.85833332           0.04969067 S 
atom_frac            0.04166668           0.85833332           0.15564267 S 
atom_frac            0.03333332           0.89166667           0.10266667 Mo 
atom_frac            0.04166668           0.88333332           0.04969067 S 
atom_frac            0.04166668           0.88333332           0.15564267 S 
atom_frac            0.03333332           0.91666667           0.10266667 Mo 
atom_frac            0.04166668           0.90833332           0.04969067 S 
atom_frac            0.04166668           0.90833332           0.15564267 S 
atom_frac            0.03333332           0.94166668           0.10266667 Mo 
atom_frac            0.04166668           0.93333332           0.04969067 S 
atom_frac            0.04166668           0.93333332           0.15564267 S 
atom_frac            0.03333332           0.96666667           0.10266667 Mo 
atom_frac            0.04166668           0.95833332           0.04969067 S 
atom_frac            0.04166668           0.95833332           0.15564267 S 
atom_frac            0.03333332           0.99166667           0.10266667 Mo 
atom_frac            0.04166668           0.98333332           0.04969067 S 
atom_frac            0.04166668           0.98333332           0.15564267 S 
atom_frac            0.05833333           0.01666667           0.10266667 Mo 
atom_frac            0.06666668           0.00833332           0.04969067 S 
atom_frac            0.06666668           0.00833332           0.15564267 S 
atom_frac            0.05833333           0.04166668           0.10266667 Mo 
atom_frac            0.06666668           0.03333332           0.04969067 S 
atom_frac            0.06666668           0.03333332           0.15564267 S 
atom_frac            0.05833333           0.06666668           0.10266667 Mo 
atom_frac            0.06666668           0.05833333           0.04969067 S 
atom_frac            0.06666668           0.05833333           0.15564267 S 
atom_frac            0.05833333           0.09166668           0.10266667 Mo 
atom_frac            0.06666668           0.08333332           0.04969067 S 
atom_frac            0.06666668           0.08333332           0.15564267 S 
atom_frac            0.05833333           0.11666667           0.10266667 Mo 
atom_frac            0.06666668           0.10833333           0.04969067 S 
atom_frac            0.06666668           0.10833333           0.15564267 S 
atom_frac            0.05833333           0.14166667           0.10266667 Mo 
atom_frac            0.06666668           0.13333333           0.04969067 S 
atom_frac            0.06666668           0.13333333           0.15564267 S 
atom_frac            0.05833333           0.16666667           0.10266667 Mo 
atom_frac            0.06666668           0.15833332           0.04969067 S 
atom_frac            0.06666668           0.15833332           0.15564267 S 
atom_frac            0.05833333           0.19166667           0.10266667 Mo 
atom_frac            0.06666668           0.18333332           0.04969067 S 
atom_frac            0.06666668           0.18333332           0.15564267 S 
atom_frac            0.05833333           0.21666668           0.10266667 Mo 
atom_frac            0.06666668           0.20833333           0.04969067 S 
atom_frac            0.06666668           0.20833333           0.15564267 S 
atom_frac            0.05833333           0.24166667           0.10266667 Mo 
atom_frac            0.06666668           0.23333333           0.04969067 S 
atom_frac            0.06666668           0.23333333           0.15564267 S 
atom_frac            0.05833333           0.26666668           0.10266667 Mo 
atom_frac            0.06666668           0.25833333           0.04969067 S 
atom_frac            0.06666668           0.25833333           0.15564267 S 
atom_frac            0.05833333           0.29166668           0.10266667 Mo 
atom_frac            0.06666668           0.28333333           0.04969067 S 
atom_frac            0.06666668           0.28333333           0.15564267 S 
atom_frac            0.05833333           0.31666668           0.10266667 Mo 
atom_frac            0.06666668           0.30833332           0.04969067 S 
atom_frac            0.06666668           0.30833332           0.15564267 S 
atom_frac            0.05833333           0.34166668           0.10266667 Mo 
atom_frac            0.06666668           0.33333333           0.04969067 S 
atom_frac            0.06666668           0.33333333           0.15564267 S 
atom_frac            0.05833333           0.36666667           0.10266667 Mo 
atom_frac            0.06666668           0.35833332           0.04969067 S 
atom_frac            0.06666668           0.35833332           0.15564267 S 
atom_frac            0.05833333           0.39166668           0.10266667 Mo 
atom_frac            0.06666668           0.38333333           0.04969067 S 
atom_frac            0.06666668           0.38333333           0.15564267 S 
atom_frac            0.05833333           0.41666668           0.10266667 Mo 
atom_frac            0.06666668           0.40833333           0.04969067 S 
atom_frac            0.06666668           0.40833333           0.15564267 S 
atom_frac            0.05833333           0.44166668           0.10266667 Mo 
atom_frac            0.06666668           0.43333332           0.04969067 S 
atom_frac            0.06666668           0.43333332           0.15564267 S 
atom_frac            0.05833333           0.46666668           0.10266667 Mo 
atom_frac            0.06666668           0.45833333           0.04969067 S 
atom_frac            0.06666668           0.45833333           0.15564267 S 
atom_frac            0.05833333           0.49166667           0.10266667 Mo 
atom_frac            0.06666668           0.48333332           0.04969067 S 
atom_frac            0.06666668           0.48333332           0.15564267 S 
atom_frac            0.05833333           0.51666667           0.10266667 Mo 
atom_frac            0.06666668           0.50833332           0.04969067 S 
atom_frac            0.06666668           0.50833332           0.15564267 S 
atom_frac            0.05833333           0.54166667           0.10266667 Mo 
atom_frac            0.06666668           0.53333332           0.04969067 S 
atom_frac            0.06666668           0.53333332           0.15564267 S 
atom_frac            0.05833333           0.56666668           0.10266667 Mo 
atom_frac            0.06666668           0.55833332           0.04969067 S 
atom_frac            0.06666668           0.55833332           0.15564267 S 
atom_frac            0.05833333           0.59166667           0.10266667 Mo 
atom_frac            0.06666668           0.58333332           0.04969067 S 
atom_frac            0.06666668           0.58333332           0.15564267 S 
atom_frac            0.05833333           0.61666667           0.10266667 Mo 
atom_frac            0.06666668           0.60833332           0.04969067 S 
atom_frac            0.06666668           0.60833332           0.15564267 S 
atom_frac            0.05833333           0.64166667           0.10266667 Mo 
atom_frac            0.06666668           0.63333332           0.04969067 S 
atom_frac            0.06666668           0.63333332           0.15564267 S 
atom_frac            0.05833333           0.66666667           0.10266667 Mo 
atom_frac            0.06666668           0.65833332           0.04969067 S 
atom_frac            0.06666668           0.65833332           0.15564267 S 
atom_frac            0.05833333           0.69166668           0.10266667 Mo 
atom_frac            0.06666668           0.68333332           0.04969067 S 
atom_frac            0.06666668           0.68333332           0.15564267 S 
atom_frac            0.05833333           0.71666667           0.10266667 Mo 
atom_frac            0.06666668           0.70833332           0.04969067 S 
atom_frac            0.06666668           0.70833332           0.15564267 S 
atom_frac            0.05833333           0.74166667           0.10266667 Mo 
atom_frac            0.06666668           0.73333332           0.04969067 S 
atom_frac            0.06666668           0.73333332           0.15564267 S 
atom_frac            0.05833333           0.76666667           0.10266667 Mo 
atom_frac            0.06666668           0.75833332           0.04969067 S 
atom_frac            0.06666668           0.75833332           0.15564267 S 
atom_frac            0.05833333           0.79166667           0.10266667 Mo 
atom_frac            0.06666668           0.78333332           0.04969067 S 
atom_frac            0.06666668           0.78333332           0.15564267 S 
atom_frac            0.05833333           0.81666668           0.10266667 Mo 
atom_frac            0.06666668           0.80833332           0.04969067 S 
atom_frac            0.06666668           0.80833332           0.15564267 S 
atom_frac            0.05833333           0.84166667           0.10266667 Mo 
atom_frac            0.06666668           0.83333332           0.04969067 S 
atom_frac            0.06666668           0.83333332           0.15564267 S 
atom_frac            0.05833333           0.86666667           0.10266667 Mo 
atom_frac            0.06666668           0.85833332           0.04969067 S 
atom_frac            0.06666668           0.85833332           0.15564267 S 
atom_frac            0.05833333           0.89166667           0.10266667 Mo 
atom_frac            0.06666668           0.88333332           0.04969067 S 
atom_frac            0.06666668           0.88333332           0.15564267 S 
atom_frac            0.05833333           0.91666667           0.10266667 Mo 
atom_frac            0.06666668           0.90833332           0.04969067 S 
atom_frac            0.06666668           0.90833332           0.15564267 S 
atom_frac            0.05833333           0.94166668           0.10266667 Mo 
atom_frac            0.06666668           0.93333332           0.04969067 S 
atom_frac            0.06666668           0.93333332           0.15564267 S 
atom_frac            0.05833333           0.96666667           0.10266667 Mo 
atom_frac            0.06666668           0.95833332           0.04969067 S 
atom_frac            0.06666668           0.95833332           0.15564267 S 
atom_frac            0.05833333           0.99166667           0.10266667 Mo 
atom_frac            0.06666668           0.98333332           0.04969067 S 
atom_frac            0.06666668           0.98333332           0.15564267 S 
atom_frac            0.08333332           0.01666667           0.10266667 Mo 
atom_frac            0.09166668           0.00833332           0.04969067 S 
atom_frac            0.09166668           0.00833332           0.15564267 S 
atom_frac            0.08333332           0.04166668           0.10266667 Mo 
atom_frac            0.09166668           0.03333332           0.04969067 S 
atom_frac            0.09166668           0.03333332           0.15564267 S 
atom_frac            0.08333332           0.06666668           0.10266667 Mo 
atom_frac            0.09166668           0.05833333           0.04969067 S 
atom_frac            0.09166668           0.05833333           0.15564267 S 
atom_frac            0.08333332           0.09166668           0.10266667 Mo 
atom_frac            0.09166668           0.08333332           0.04969067 S 
atom_frac            0.09166668           0.08333332           0.15564267 S 
atom_frac            0.08333332           0.11666667           0.10266667 Mo 
atom_frac            0.09166668           0.10833333           0.04969067 S 
atom_frac            0.09166668           0.10833333           0.15564267 S 
atom_frac            0.08333332           0.14166667           0.10266667 Mo 
atom_frac            0.09166668           0.13333333           0.04969067 S 
atom_frac            0.09166668           0.13333333           0.15564267 S 
atom_frac            0.08333332           0.16666667           0.10266667 Mo 
atom_frac            0.09166668           0.15833332           0.04969067 S 
atom_frac            0.09166668           0.15833332           0.15564267 S 
atom_frac            0.08333332           0.19166667           0.10266667 Mo 
atom_frac            0.09166668           0.18333332           0.04969067 S 
atom_frac            0.09166668           0.18333332           0.15564267 S 