lattice_vector           79.01000000        -136.84950000           0.00000000
lattice_vector           79.01000000         136.84950000           0.00000000
lattice_vector            0.00000000           0.00000000          30.00000000

atom_frac            0.00666666           0.01333334           0.10266667 Mo 
atom_frac            0.01333334           0.00666666           0.04969067 S 
atom_frac            0.01333334           0.00666666           0.15564267 S 
atom_frac            0.00666666           0.03333334           0.10266667 Mo 
atom_frac            0.01333334           0.02666666           0.04969067 S 
atom_frac            0.01333334           0.02666666           0.15564267 S 
atom_frac            0.00666666           0.05333334           0.10266667 Mo 
atom_frac            0.01333334           0.04666666           0.04969067 S 
atom_frac            0.01333334           0.04666666           0.15564267 S 
atom_frac            0.00666666           0.07333334           0.10266667 Mo 
atom_frac            0.01333334           0.06666666           0.04969067 S 
atom_frac            0.01333334           0.06666666           0.15564267 S 
atom_frac            0.00666666           0.09333334           0.10266667 Mo 
atom_frac            0.01333334           0.08666666           0.04969067 S 
atom_frac            0.01333334           0.08666666           0.15564267 S 
atom_frac            0.00666666           0.11333334           0.10266667 Mo 
atom_frac            0.01333334           0.10666666           0.04969067 S 
atom_frac            0.01333334           0.10666666           0.15564267 S 
atom_frac            0.00666666           0.13333334           0.10266667 Mo 
atom_frac            0.01333334           0.12666666           0.04969067 S 
atom_frac            0.01333334           0.12666666           0.15564267 S 
atom_frac            0.00666666           0.15333334           0.10266667 Mo 
atom_frac            0.01333334           0.14666666           0.04969067 S 
atom_frac            0.01333334           0.14666666           0.15564267 S 
atom_frac            0.00666666           0.17333334           0.10266667 Mo 
atom_frac            0.01333334           0.16666666           0.04969067 S 
atom_frac            0.01333334           0.16666666           0.15564267 S 
atom_frac            0.00666666           0.19333334           0.10266667 Mo 
atom_frac            0.01333334           0.18666666           0.04969067 S 
atom_frac            0.01333334           0.18666666           0.15564267 S 
atom_frac            0.00666666           0.21333334           0.10266667 Mo 
atom_frac            0.01333334           0.20666666           0.04969067 S 
atom_frac            0.01333334           0.20666666           0.15564267 S 
atom_frac            0.00666666           0.23333334           0.10266667 Mo 
atom_frac            0.01333334           0.22666666           0.04969067 S 
atom_frac            0.01333334           0.22666666           0.15564267 S 
atom_frac            0.00666666           0.25333334           0.10266667 Mo 
atom_frac            0.01333334           0.24666666           0.04969067 S 
atom_frac            0.01333334           0.24666666           0.15564267 S 
atom_frac            0.00666666           0.27333334           0.10266667 Mo 
atom_frac            0.01333334           0.26666666           0.04969067 S 
atom_frac            0.01333334           0.26666666           0.15564267 S 
atom_frac            0.00666666           0.29333334           0.10266667 Mo 
atom_frac            0.01333334           0.28666666           0.04969067 S 
atom_frac            0.01333334           0.28666666           0.15564267 S 
atom_frac            0.00666666           0.31333334           0.10266667 Mo 
atom_frac            0.01333334           0.30666666           0.04969067 S 
atom_frac            0.01333334           0.30666666           0.15564267 S 
atom_frac            0.00666666           0.33333334           0.10266667 Mo 
atom_frac            0.01333334           0.32666666           0.04969067 S 
atom_frac            0.01333334           0.32666666           0.15564267 S 
atom_frac            0.00666666           0.35333334           0.10266667 Mo 
atom_frac            0.01333334           0.34666666           0.04969067 S 
atom_frac            0.01333334           0.34666666           0.15564267 S 
atom_frac            0.00666666           0.37333334           0.10266667 Mo 
atom_frac            0.01333334           0.36666666           0.04969067 S 
atom_frac            0.01333334           0.36666666           0.15564267 S 
atom_frac            0.00666666           0.39333334           0.10266667 Mo 
atom_frac            0.01333334           0.38666666           0.04969067 S 
atom_frac            0.01333334           0.38666666           0.15564267 S 
atom_frac            0.00666666           0.41333334           0.10266667 Mo 
atom_frac            0.01333334           0.40666666           0.04969067 S 
atom_frac            0.01333334           0.40666666           0.15564267 S 
atom_frac            0.00666666           0.43333334           0.10266667 Mo 
atom_frac            0.01333334           0.42666666           0.04969067 S 
atom_frac            0.01333334           0.42666666           0.15564267 S 
atom_frac            0.00666666           0.45333334           0.10266667 Mo 
atom_frac            0.01333334           0.44666666           0.04969067 S 
atom_frac            0.01333334           0.44666666           0.15564267 S 
atom_frac            0.00666666           0.47333334           0.10266667 Mo 
atom_frac            0.01333334           0.46666666           0.04969067 S 
atom_frac            0.01333334           0.46666666           0.15564267 S 
atom_frac            0.00666666           0.49333334           0.10266667 Mo 
atom_frac            0.01333334           0.48666666           0.04969067 S 
atom_frac            0.01333334           0.48666666           0.15564267 S 
atom_frac            0.00666666           0.51333334           0.10266667 Mo 
atom_frac            0.01333334           0.50666666           0.04969067 S 
atom_frac            0.01333334           0.50666666           0.15564267 S 
atom_frac            0.00666666           0.53333334           0.10266667 Mo 
atom_frac            0.01333334           0.52666666           0.04969067 S 
atom_frac            0.01333334           0.52666666           0.15564267 S 
atom_frac            0.00666666           0.55333334           0.10266667 Mo 
atom_frac            0.01333334           0.54666666           0.04969067 S 
atom_frac            0.01333334           0.54666666           0.15564267 S 
atom_frac            0.00666666           0.57333334           0.10266667 Mo 
atom_frac            0.01333334           0.56666666           0.04969067 S 
atom_frac            0.01333334           0.56666666           0.15564267 S 
atom_frac            0.00666666           0.59333334           0.10266667 Mo 
atom_frac            0.01333334           0.58666666           0.04969067 S 
atom_frac            0.01333334           0.58666666           0.15564267 S 
atom_frac            0.00666666           0.61333334           0.10266667 Mo 
atom_frac            0.01333334           0.60666666           0.04969067 S 
atom_frac            0.01333334           0.60666666           0.15564267 S 
atom_frac            0.00666666           0.63333334           0.10266667 Mo 
atom_frac            0.01333334           0.62666666           0.04969067 S 
atom_frac            0.01333334           0.62666666           0.15564267 S 
atom_frac            0.00666666           0.65333334           0.10266667 Mo 
atom_frac            0.01333334           0.64666666           0.04969067 S 
atom_frac            0.01333334           0.64666666           0.15564267 S 
atom_frac            0.00666666           0.67333334           0.10266667 Mo 
atom_frac            0.01333334           0.66666666           0.04969067 S 
atom_frac            0.01333334           0.66666666           0.15564267 S 
atom_frac            0.00666666           0.69333334           0.10266667 Mo 
atom_frac            0.01333334           0.68666666           0.04969067 S 
atom_frac            0.01333334           0.68666666           0.15564267 S 
atom_frac            0.00666666           0.71333334           0.10266667 Mo 
atom_frac            0.01333334           0.70666666           0.04969067 S 
atom_frac            0.01333334           0.70666666           0.15564267 S 
atom_frac            0.00666666           0.73333334           0.10266667 Mo 
atom_frac            0.01333334           0.72666666           0.04969067 S 
atom_frac            0.01333334           0.72666666           0.15564267 S 
atom_frac            0.00666666           0.75333334           0.10266667 Mo 
atom_frac            0.01333334           0.74666666           0.04969067 S 
atom_frac            0.01333334           0.74666666           0.15564267 S 
atom_frac            0.00666666           0.77333334           0.10266667 Mo 
atom_frac            0.01333334           0.76666666           0.04969067 S 
atom_frac            0.01333334           0.76666666           0.15564267 S 
atom_frac            0.00666666           0.79333334           0.10266667 Mo 
atom_frac            0.01333334           0.78666666           0.04969067 S 
atom_frac            0.01333334           0.78666666           0.15564267 S 
atom_frac            0.00666666           0.81333334           0.10266667 Mo 
atom_frac            0.01333334           0.80666666           0.04969067 S 
atom_frac            0.01333334           0.80666666           0.15564267 S 
atom_frac            0.00666666           0.83333334           0.10266667 Mo 
atom_frac            0.01333334           0.82666666           0.04969067 S 
atom_frac            0.01333334           0.82666666           0.15564267 S 
atom_frac            0.00666666           0.85333334           0.10266667 Mo 
atom_frac            0.01333334           0.84666666           0.04969067 S 
atom_frac            0.01333334           0.84666666           0.15564267 S 
atom_frac            0.00666666           0.87333334           0.10266667 Mo 
atom_frac            0.01333334           0.86666666           0.04969067 S 
atom_frac            0.01333334           0.86666666           0.15564267 S 
atom_frac            0.00666666           0.89333334           0.10266667 Mo 
atom_frac            0.01333334           0.88666666           0.04969067 S 
atom_frac            0.01333334           0.88666666           0.15564267 S 
atom_frac            0.00666666           0.91333334           0.10266667 Mo 
atom_frac            0.01333334           0.90666666           0.04969067 S 
atom_frac            0.01333334           0.90666666           0.15564267 S 
atom_frac            0.00666666           0.93333334           0.10266667 Mo 
atom_frac            0.01333334           0.92666666           0.04969067 S 
atom_frac            0.01333334           0.92666666           0.15564267 S 
atom_frac            0.00666666           0.95333334           0.10266667 Mo 
atom_frac            0.01333334           0.94666666           0.04969067 S 
atom_frac            0.01333334           0.94666666           0.15564267 S 
atom_frac            0.00666666           0.97333334           0.10266667 Mo 
atom_frac            0.01333334           0.96666666           0.04969067 S 
atom_frac            0.01333334           0.96666666           0.15564267 S 
atom_frac            0.00666666           0.99333334           0.10266667 Mo 
atom_frac            0.01333334           0.98666666           0.04969067 S 
atom_frac            0.01333334           0.98666666           0.15564267 S 
atom_frac            0.02666666           0.01333334           0.10266667 Mo 
atom_frac            0.03333334           0.00666666           0.04969067 S 
atom_frac            0.03333334           0.00666666           0.15564267 S 
atom_frac            0.02666666           0.03333334           0.10266667 Mo 
atom_frac            0.03333334           0.02666666           0.04969067 S 
atom_frac            0.03333334           0.02666666           0.15564267 S 
atom_frac            0.02666666           0.05333334           0.10266667 Mo 
atom_frac            0.03333334           0.04666666           0.04969067 S 
atom_frac            0.03333334           0.04666666           0.15564267 S 
atom_frac            0.02666666           0.07333334           0.10266667 Mo 
atom_frac            0.03333334           0.06666666           0.04969067 S 
atom_frac            0.03333334           0.06666666           0.15564267 S 
atom_frac            0.02666666           0.09333334           0.10266667 Mo 
atom_frac            0.03333334           0.08666666           0.04969067 S 
atom_frac            0.03333334           0.08666666           0.15564267 S 
atom_frac            0.02666666           0.11333334           0.10266667 Mo 
atom_frac            0.03333334           0.10666666           0.04969067 S 
atom_frac            0.03333334           0.10666666           0.15564267 S 
atom_frac            0.02666666           0.13333334           0.10266667 Mo 
atom_frac            0.03333334           0.12666666           0.04969067 S 
atom_frac            0.03333334           0.12666666           0.15564267 S 
atom_frac            0.02666666           0.15333334           0.10266667 Mo 
atom_frac            0.03333334           0.14666666           0.04969067 S 
atom_frac            0.03333334           0.14666666           0.15564267 S 
atom_frac            0.02666666           0.17333334           0.10266667 Mo 
atom_frac            0.03333334           0.16666666           0.04969067 S 
atom_frac            0.03333334           0.16666666           0.15564267 S 
atom_frac            0.02666666           0.19333334           0.10266667 Mo 
atom_frac            0.03333334           0.18666666           0.04969067 S 
atom_frac            0.03333334           0.18666666           0.15564267 S 
atom_frac            0.02666666           0.21333334           0.10266667 Mo 
atom_frac            0.03333334           0.20666666           0.04969067 S 
atom_frac            0.03333334           0.20666666           0.15564267 S 
atom_frac            0.02666666           0.23333334           0.10266667 Mo 
atom_frac            0.03333334           0.22666666           0.04969067 S 
atom_frac            0.03333334           0.22666666           0.15564267 S 
atom_frac            0.02666666           0.25333334           0.10266667 Mo 
atom_frac            0.03333334           0.24666666           0.04969067 S 
atom_frac            0.03333334           0.24666666           0.15564267 S 
atom_frac            0.02666666           0.27333334           0.10266667 Mo 
atom_frac            0.03333334           0.26666666           0.04969067 S 
atom_frac            0.03333334           0.26666666           0.15564267 S 
atom_frac            0.02666666           0.29333334           0.10266667 Mo 
atom_frac            0.03333334           0.28666666           0.04969067 S 
atom_frac            0.03333334           0.28666666           0.15564267 S 
atom_frac            0.02666666           0.31333334           0.10266667 Mo 
atom_frac            0.03333334           0.30666666           0.04969067 S 
atom_frac            0.03333334           0.30666666           0.15564267 S 
atom_frac            0.02666666           0.33333334           0.10266667 Mo 
atom_frac            0.03333334           0.32666666           0.04969067 S 
atom_frac            0.03333334           0.32666666           0.15564267 S 
atom_frac            0.02666666           0.35333334           0.10266667 Mo 
atom_frac            0.03333334           0.34666666           0.04969067 S 
atom_frac            0.03333334           0.34666666           0.15564267 S 
atom_frac            0.02666666           0.37333334           0.10266667 Mo 
atom_frac            0.03333334           0.36666666           0.04969067 S 
atom_frac            0.03333334           0.36666666           0.15564267 S 
atom_frac            0.02666666           0.39333334           0.10266667 Mo 
atom_frac            0.03333334           0.38666666           0.04969067 S 
atom_frac            0.03333334           0.38666666           0.15564267 S 
atom_frac            0.02666666           0.41333334           0.10266667 Mo 
atom_frac            0.03333334           0.40666666           0.04969067 S 
atom_frac            0.03333334           0.40666666           0.15564267 S 
atom_frac            0.02666666           0.43333334           0.10266667 Mo 
atom_frac            0.03333334           0.42666666           0.04969067 S 
atom_frac            0.03333334           0.42666666           0.15564267 S 
atom_frac            0.02666666           0.45333334           0.10266667 Mo 
atom_frac            0.03333334           0.44666666           0.04969067 S 
atom_frac            0.03333334           0.44666666           0.15564267 S 
atom_frac            0.02666666           0.47333334           0.10266667 Mo 
atom_frac            0.03333334           0.46666666           0.04969067 S 
atom_frac            0.03333334           0.46666666           0.15564267 S 
atom_frac            0.02666666           0.49333334           0.10266667 Mo 
atom_frac            0.03333334           0.48666666           0.04969067 S 
atom_frac            0.03333334           0.48666666           0.15564267 S 
atom_frac            0.02666666           0.51333334           0.10266667 Mo 
atom_frac            0.03333334           0.50666666           0.04969067 S 
atom_frac            0.03333334           0.50666666           0.15564267 S 
atom_frac            0.02666666           0.53333334           0.10266667 Mo 
atom_frac            0.03333334           0.52666666           0.04969067 S 
atom_frac            0.03333334           0.52666666           0.15564267 S 
atom_frac            0.02666666           0.55333334           0.10266667 Mo 
atom_frac            0.03333334           0.54666666           0.04969067 S 
atom_frac            0.03333334           0.54666666           0.15564267 S 
atom_frac            0.02666666           0.57333334           0.10266667 Mo 
atom_frac            0.03333334           0.56666666           0.04969067 S 
atom_frac            0.03333334           0.56666666           0.15564267 S 
atom_frac            0.02666666           0.59333334           0.10266667 Mo 
atom_frac            0.03333334           0.58666666           0.04969067 S 
atom_frac            0.03333334           0.58666666           0.15564267 S 
atom_frac            0.02666666           0.61333334           0.10266667 Mo 
atom_frac            0.03333334           0.60666666           0.04969067 S 
atom_frac            0.03333334           0.60666666           0.15564267 S 
atom_frac            0.02666666           0.63333334           0.10266667 Mo 
atom_frac            0.03333334           0.62666666           0.04969067 S 
atom_frac            0.03333334           0.62666666           0.15564267 S 
atom_frac            0.02666666           0.65333334           0.10266667 Mo 
atom_frac            0.03333334           0.64666666           0.04969067 S 
atom_frac            0.03333334           0.64666666           0.15564267 S 
atom_frac            0.02666666           0.67333334           0.10266667 Mo 
atom_frac            0.03333334           0.66666666           0.04969067 S 
atom_frac            0.03333334           0.66666666           0.15564267 S 
atom_frac            0.02666666           0.69333334           0.10266667 Mo 
atom_frac            0.03333334           0.68666666           0.04969067 S 
atom_frac            0.03333334           0.68666666           0.15564267 S 
atom_frac            0.02666666           0.71333334           0.10266667 Mo 
atom_frac            0.03333334           0.70666666           0.04969067 S 
atom_frac            0.03333334           0.70666666           0.15564267 S 
atom_frac            0.02666666           0.73333334           0.10266667 Mo 
atom_frac            0.03333334           0.72666666           0.04969067 S 
atom_frac            0.03333334           0.72666666           0.15564267 S 
atom_frac            0.02666666           0.75333334           0.10266667 Mo 
atom_frac            0.03333334           0.74666666           0.04969067 S 
atom_frac            0.03333334           0.74666666           0.15564267 S 
atom_frac            0.02666666           0.77333334           0.10266667 Mo 
atom_frac            0.03333334           0.76666666           0.04969067 S 
atom_frac            0.03333334           0.76666666           0.15564267 S 
atom_frac            0.02666666           0.79333334           0.10266667 Mo 
atom_frac            0.03333334           0.78666666           0.04969067 S 
atom_frac            0.03333334           0.78666666           0.15564267 S 
atom_frac            0.02666666           0.81333334           0.10266667 Mo 
atom_frac            0.03333334           0.80666666           0.04969067 S 
atom_frac            0.03333334           0.80666666           0.15564267 S 
atom_frac            0.02666666           0.83333334           0.10266667 Mo 
atom_frac            0.03333334           0.82666666           0.04969067 S 
atom_frac            0.03333334           0.82666666           0.15564267 S 
atom_frac            0.02666666           0.85333334           0.10266667 Mo 
atom_frac            0.03333334           0.84666666           0.04969067 S 
atom_frac            0.03333334           0.84666666           0.15564267 S 
atom_frac            0.02666666           0.87333334           0.10266667 Mo 
atom_frac            0.03333334           0.86666666           0.04969067 S 
atom_frac            0.03333334           0.86666666           0.15564267 S 
atom_frac            0.02666666           0.89333334           0.10266667 Mo 
atom_frac            0.03333334           0.88666666           0.04969067 S 
atom_frac            0.03333334           0.88666666           0.15564267 S 
atom_frac            0.02666666           0.91333334           0.10266667 Mo 
atom_frac            0.03333334           0.90666666           0.04969067 S 
atom_frac            0.03333334           0.90666666           0.15564267 S 
atom_frac            0.02666666           0.93333334           0.10266667 Mo 
atom_frac            0.03333334           0.92666666           0.04969067 S 
atom_frac            0.03333334           0.92666666           0.15564267 S 
atom_frac            0.02666666           0.95333334           0.10266667 Mo 
atom_frac            0.03333334           0.94666666           0.04969067 S 
atom_frac            0.03333334           0.94666666           0.15564267 S 
atom_frac            0.02666666           0.97333334           0.10266667 Mo 
atom_frac            0.03333334           0.96666666           0.04969067 S 
atom_frac            0.03333334           0.96666666           0.15564267 S 
atom_frac            0.02666666           0.99333334           0.10266667 Mo 
atom_frac            0.03333334           0.98666666           0.04969067 S 
atom_frac            0.03333334           0.98666666           0.15564267 S 
atom_frac            0.04666666           0.01333334           0.10266667 Mo 
atom_frac            0.05333334           0.00666666           0.04969067 S 
atom_frac            0.05333334           0.00666666           0.15564267 S 
atom_frac            0.04666666           0.03333334           0.10266667 Mo 
atom_frac            0.05333334           0.02666666           0.04969067 S 
atom_frac            0.05333334           0.02666666           0.15564267 S 
atom_frac            0.04666666           0.05333334           0.10266667 Mo 
atom_frac            0.05333334           0.04666666           0.04969067 S 
atom_frac            0.05333334           0.04666666           0.15564267 S 
atom_frac            0.04666666           0.07333334           0.10266667 Mo 
atom_frac            0.05333334           0.06666666           0.04969067 S 
atom_frac            0.05333334           0.06666666           0.15564267 S 
atom_frac            0.04666666           0.09333334           0.10266667 Mo 
atom_frac            0.05333334           0.08666666           0.04969067 S 
atom_frac            0.05333334           0.08666666           0.15564267 S 
atom_frac            0.04666666           0.11333334           0.10266667 Mo 
atom_frac            0.05333334           0.10666666           0.04969067 S 
atom_frac            0.05333334           0.10666666           0.15564267 S 
atom_frac            0.04666666           0.13333334           0.10266667 Mo 
atom_frac            0.05333334           0.12666666           0.04969067 S 
atom_frac            0.05333334           0.12666666           0.15564267 S 
atom_frac            0.04666666           0.15333334           0.10266667 Mo 
atom_frac            0.05333334           0.14666666           0.04969067 S 
atom_frac            0.05333334           0.14666666           0.15564267 S 
atom_frac            0.04666666           0.17333334           0.10266667 Mo 
atom_frac            0.05333334           0.16666666           0.04969067 S 
atom_frac            0.05333334           0.16666666           0.15564267 S 
atom_frac            0.04666666           0.19333334           0.10266667 Mo 
atom_frac            0.05333334           0.18666666           0.04969067 S 
atom_frac            0.05333334           0.18666666           0.15564267 S 
atom_frac            0.04666666           0.21333334           0.10266667 Mo 
atom_frac            0.05333334           0.20666666           0.04969067 S 
atom_frac            0.05333334           0.20666666           0.15564267 S 
atom_frac            0.04666666           0.23333334           0.10266667 Mo 
atom_frac            0.05333334           0.22666666           0.04969067 S 
atom_frac            0.05333334           0.22666666           0.15564267 S 
atom_frac            0.04666666           0.25333334           0.10266667 Mo 
atom_frac            0.05333334           0.24666666           0.04969067 S 
atom_frac            0.05333334           0.24666666           0.15564267 S 
atom_frac            0.04666666           0.27333334           0.10266667 Mo 
atom_frac            0.05333334           0.26666666           0.04969067 S 
atom_frac            0.05333334           0.26666666           0.15564267 S 
atom_frac            0.04666666           0.29333334           0.10266667 Mo 
atom_frac            0.05333334           0.28666666           0.04969067 S 
atom_frac            0.05333334           0.28666666           0.15564267 S 
atom_frac            0.04666666           0.31333334           0.10266667 Mo 
atom_frac            0.05333334           0.30666666           0.04969067 S 
atom_frac            0.05333334           0.30666666           0.15564267 S 
atom_frac            0.04666666           0.33333334           0.10266667 Mo 
atom_frac            0.05333334           0.32666666           0.04969067 S 
atom_frac            0.05333334           0.32666666           0.15564267 S 
atom_frac            0.04666666           0.35333334           0.10266667 Mo 
atom_frac            0.05333334           0.34666666           0.04969067 S 
atom_frac            0.05333334           0.34666666           0.15564267 S 
atom_frac            0.04666666           0.37333334           0.10266667 Mo 
atom_frac            0.05333334           0.36666666           0.04969067 S 
atom_frac            0.05333334           0.36666666           0.15564267 S 
atom_frac            0.04666666           0.39333334           0.10266667 Mo 
atom_frac            0.05333334           0.38666666           0.04969067 S 
atom_frac            0.05333334           0.38666666           0.15564267 S 
atom_frac            0.04666666           0.41333334           0.10266667 Mo 
atom_frac            0.05333334           0.40666666           0.04969067 S 
atom_frac            0.05333334           0.40666666           0.15564267 S 
atom_frac            0.04666666           0.43333334           0.10266667 Mo 
atom_frac            0.05333334           0.42666666           0.04969067 S 
atom_frac            0.05333334           0.42666666           0.15564267 S 
atom_frac            0.04666666           0.45333334           0.10266667 Mo 
atom_frac            0.05333334           0.44666666           0.04969067 S 
atom_frac            0.05333334           0.44666666           0.15564267 S 
atom_frac            0.04666666           0.47333334           0.10266667 Mo 
atom_frac            0.05333334           0.46666666           0.04969067 S 
atom_frac            0.05333334           0.46666666           0.15564267 S 
atom_frac            0.04666666           0.49333334           0.10266667 Mo 
atom_frac            0.05333334           0.48666666           0.04969067 S 
atom_frac            0.05333334           0.48666666           0.15564267 S 
atom_frac            0.04666666           0.51333334           0.10266667 Mo 
atom_frac            0.05333334           0.50666666           0.04969067 S 
atom_frac            0.05333334           0.50666666           0.15564267 S 
atom_frac            0.04666666           0.53333334           0.10266667 Mo 
atom_frac            0.05333334           0.52666666           0.04969067 S 
atom_frac            0.05333334           0.52666666           0.15564267 S 
atom_frac            0.04666666           0.55333334           0.10266667 Mo 
atom_frac            0.05333334           0.54666666           0.04969067 S 
atom_frac            0.05333334           0.54666666           0.15564267 S 