# Material:  Water
# Structure: Box of water, obtained from snapshot of MD simulation using the TIP4P force field (T = ??? K)
# Source:    Provided by Lin Lin, used in Lin et al., J. Phys. Condens. Matter 26, 305503 (2014)
# Keywords:  3D, Liquid, Article, Provided
# Note:      Units of original geometry were in bohr.  A conversion factor of 1 bohr = 0.52917721 Angstroms was used.
lattice_vector   11.68300464  0.00000000  0.00000000
lattice_vector    0.00000000 11.68300464  0.00000000
lattice_vector    0.00000000  0.00000000 11.68300464
atom    12.79441846      1.28257552     -3.26305697    O
atom    12.12901554      1.53181282     -3.91904193    H
atom    13.19974456      2.10726195     -3.03999372    H
atom    12.41687488      6.51617296      9.09328295    O
atom    13.18069387      7.05086154      9.49372741    H
atom    12.76061855      5.57166236      9.02378003    H
atom     1.09105826      2.53283111     12.12718288    O
atom     1.82141161      2.06520168     11.60287816    H
atom     0.16652398      2.17177691     11.87113893    H
atom     5.00439610     10.62366573      9.85665318    O
atom     5.63947084      9.94000853      9.51800072    H
atom     4.20981503     10.38936668      9.31227156    H
atom    10.60331235      1.36033348      6.20958014    O
atom    10.06224877      1.88684984      5.60153276    H
atom    11.21291079      0.86973258      5.67238165    H
atom     2.47834040     11.40176259      2.76843348    O
atom     3.38444955     11.76871371      2.86943032    H
atom     2.52824900     10.88927507      1.89567485    H
atom     1.66626516      7.88078633      6.73266145    O
atom     2.57999206      7.63297668      7.03349209    H
atom     1.13186028      7.89435107      7.50131807    H
atom     2.46360665     -1.20809481     11.65059303    O
atom     1.48785384     -1.20914895     11.54093544    H
atom     2.67408459     -0.36514145     11.14279600    H
atom    11.14528788      3.89954591      3.67182788    O
atom    11.29779293      2.92935893      3.35521478    H
atom    11.53198169      4.43529094      2.95834202    H
atom    12.23130634      5.39454926      1.56659396    O
atom    12.19331489      6.40648065      1.58012306    H
atom    11.51754382      5.14128636      0.92204310    H
atom    -0.10440660     11.42741634     10.89775504    O
atom    -0.42375465     10.88140029     10.16278809    H
atom     0.26464204     12.17308627     10.43745933    H
atom     5.71598306      5.10781716      1.93255543    O
atom     5.53129770      4.43913390      2.59479817    H
atom     6.61921564      4.88154513      1.62654992    H
atom     6.20223782      6.16033635      4.60634662    O
atom     6.73209635      6.40269724      3.85492224    H
atom     5.97442116      5.19849289      4.42879761    H
atom     9.51700573      5.58783223      5.83546522    O
atom    10.39504108      5.75174216      5.47489117    H
atom     8.94092700      6.09165876      5.24141163    H
atom    11.89474607      4.33994282      6.48274504    O
atom    11.63617832      4.04989076      5.52238548    H
atom    12.84478598      4.20373800      6.50801521    H
atom     4.03550029      7.16084736      7.81950002    O
atom     4.98220980      7.32545032      7.58695568    H
atom     3.83534110      7.41459340      8.71704511    H
atom    11.49453944      1.17250103      3.54094178    O
atom    12.31289301      0.87281715      3.13626488    H
atom    10.79756996      0.63024066      3.07986697    H
atom     0.19789491      8.21027361      2.01150434    O
atom    -0.06640392      9.21643246      1.98654216    H
atom     1.18492273      8.19067844      1.80569505    H
atom     7.54638134     11.95416858      4.02770399    O
atom     6.86063933     12.45679732      4.49843919    H
atom     7.17951584     11.03591848      4.02197824    H
atom     6.85083935     12.58820674      9.33527553    O
atom     6.57328297     13.29515715      8.70941573    H
atom     6.14951145     11.90397421      9.21579467    H
atom     0.26877192      6.64540956      4.42778031    O
atom     0.62874205      7.21875190      5.13253740    H
atom     0.08728748      7.33529329      3.71605229    H
atom     3.00096433      5.32377210      3.44446821    O
atom     2.12517721      5.73556564      3.58714510    H
atom     3.46081615      5.95947144      4.02937749    H
atom     2.61805139     10.60676197      8.50370112    O
atom     2.01236181     11.33883863      8.58547967    H
atom     2.05717813      9.88845070      8.28505091    H
atom     5.11349856     10.39869265     12.65705871    O
atom     4.46825308      9.71141988     12.89762420    H
atom     4.91517919     10.43586028     11.69313981    H
atom    15.00394287      1.34487927     10.88147601    O
atom    15.06169644      1.64199869      9.97100446    H
atom    15.77936139      1.70246754     11.33241917    H
atom     8.56239337      3.94088833     14.56186440    O
atom     9.56702258      3.81920720     14.79821657    H
atom     8.39812636      3.10725650     14.08073713    H
atom    10.19531996     16.01366742     11.46062626    O
atom    10.26321772     16.31473046     10.52906441    H
atom     9.26281470     16.26860237     11.75362145    H
atom     4.62002174      4.39316950      9.67538739    O
atom     5.06593937      5.28658087      9.47701212    H
atom     4.65536433      4.28710270     10.67220464    H
atom    10.18174450      1.75197700      0.30815274    O
atom     9.99860068      2.73461059      0.27743151    H
atom    10.10837720      1.48071948     -0.61526612    H
atom     5.72548071      0.66268484      6.05702717    O
atom     4.95292494      0.03908792      5.87401780    H
atom     5.29108216      1.40901277      6.53913446    H
atom     3.80096276      7.84400390      4.90337992    O
atom     4.66246885      7.44034474      5.04229206    H
atom     3.73579096      8.76860441      5.37587695    H
atom     3.10198836      8.29943797      2.11783868    O
atom     3.44023618      7.49499531      1.74104288    H
atom     3.56676163      8.27812445      3.02467383    H
atom     6.90531832      7.76110708      6.87684212    O
atom     6.84548895      7.60938207      5.92339513    H
atom     7.37497864      8.65468686      6.91632851    H
atom     2.56369487      2.84677251      2.54584012    O
atom     1.89744972      2.67023578      1.91484370    H
atom     2.55301972      3.79312818      2.86887056    H
atom     5.40179792      3.47559710      4.87346681    O
atom     5.33435449      2.68159239      4.29269259    H
atom     5.99144967      3.27380121      5.67655655    H
atom     6.06418124      7.69095976      9.93377415    O
atom     7.00167956      7.79656540      9.67378066    H
atom     6.13338628      7.41401197     10.87570170    H
atom    10.69235367     10.70856437     13.37401638    O
atom    11.16604083     11.06932857     12.56896620    H
atom     9.76215009     10.51270646     13.04531231    H
atom    10.35753103      7.74885773     10.93265987    O
atom    10.31540473      7.87862964     11.90049316    H
atom    11.12126412      7.37711893     10.49578302    H
atom     7.55267560      4.79477077     11.36159400    O
atom     7.59557226      5.34396291     10.55283110    H
atom     6.73010822      4.25100472     11.27835505    H
atom     9.60609062     13.04368242      9.18487456    O
atom     8.71691603     12.83723411      9.41009025    H
atom     9.84313906     12.50506690      8.36737216    H
atom     6.07311237      2.59004768     11.52449163    O
atom     6.38748777      2.01952442     10.82474962    H
atom     6.66707337      2.34745240     12.28155947    H
atom     3.29767469      4.57642275      6.73341007    O
atom     3.52180382      5.44702663      7.22897001    H
atom     3.88855506      4.47229798      5.99281365    H
atom    15.23948430     10.61418152      5.98439155    O
atom    14.94959067     10.70991479      6.94445825    H
atom    14.66751192     11.20355450      5.40592306    H
atom     8.43043183      9.47387032      9.87043388    O
atom     9.08598803      8.78754973      9.93909765    H
atom     8.55494445      9.90215558      9.00665951    H
atom     7.79612102      5.64342660      8.50087680    O
atom     8.73783392      5.27834149      8.46433012    H
atom     7.76303935      6.47702289      7.94810192    H
atom    -1.56584985      7.84325225      7.79802421    O
atom    -0.97165880      7.26344668      8.31884957    H
atom    -2.00609789      7.20468894      7.16522769    H
atom     3.37830491      5.77954257     12.04160320    O
atom     4.04179747      5.53934583     12.72891169    H
atom     2.52570777      5.38646020     12.31920563    H
atom     7.80530556      1.38145422      1.64513065    O
atom     8.65904713      1.07698072      1.23620059    H
atom     7.65285498      0.86203092      2.49145519    H
atom     1.66236830      3.92723373      9.63858068    O
atom     2.62450640      4.16896195      9.54353513    H
atom     1.41080163      3.93945129     10.58786075    H
atom     6.15439077      9.48460410      3.84978589    O
atom     6.05968120      8.81947976      3.15293323    H
atom     5.30273980      9.40716195      4.34615582    H
atom     2.89155048      7.96743555     10.29849231    O
atom     3.17629903      8.82701683     10.64208677    H
atom     3.13366725      7.34737191     11.03824859    H
atom     8.01929929     10.10566428      0.95887995    O
atom     7.20302262     10.57485846      1.08449474    H
atom     8.05138487     10.07186846     -0.02186839    H
atom     9.87043497      9.77395386      4.65717659    O
atom    10.87252854      9.70833056      4.77890153    H
atom     9.69638275     10.67824973      4.21202834    H
atom     8.77975883      3.06782740      5.44188860    O
atom     9.00532038      4.01844680      5.72475005    H
atom     8.23489697      3.19231997      4.65722919    H
atom    10.11476514      4.21730850      8.46604329    O
atom     9.97680988      3.32232209      8.76492745    H
atom    10.78287441      4.13098531      7.71509316    H
atom    11.64930970     10.32780226      7.84802071    O
atom    11.40893141     11.01961528      7.16030418    H
atom    10.94418843      9.62505449      7.81481572    H
atom     4.76360038      1.49671687      2.84964539    O
atom     5.25542119      0.93423895      2.18836711    H
atom     4.14804643      2.10861383      2.45124087    H
atom     3.69837117      2.13136561      7.86911699    O
atom     3.02072725      2.22353790      7.16523173    H
atom     4.07907399      3.01502788      7.81358863    H
atom     6.89795369      3.24300215      7.32759653    O
atom     7.79601517      3.14440475      6.88855412    H
atom     6.96541560      4.03643082      7.96340069    H
atom     8.91533100      7.12496523     14.94892351    O
atom     9.60407844      7.05041756     14.27266683    H
atom     9.08147670      7.98768857     15.36966116    H
atom     8.19861694     10.34436709      6.82629797    O
atom     7.46099225     10.90460540      6.51508136    H
atom     8.78644643     10.11130681      6.03366824    H
atom     6.20964525      7.86510205     13.24764131    O
atom     6.66051978      6.95989925     13.14830681    H
atom     6.76877262      8.50256252     12.79044597    H
atom    12.60096901      9.90890218      5.18315146    O
atom    13.09213014      9.32221293      5.80533334    H
atom    13.15727180     10.02104340      4.44382085    H
atom    14.14012420      1.76514486      5.46343748    O
atom    13.14432869      1.76352279      5.58880218    H
atom    14.17734964      2.40411860      4.70750790    H
