
# ---------------------------------------------------------------------------
# Name and Label
# ---------------------------------------------------------------------------

SystemName          VNL-Export
SystemLabel         VNL-Export

# ---------------------------------------------------------------------------
# Lattice
# ---------------------------------------------------------------------------

LatticeConstant             1.00 Ang

%block LatticeVectors
    25.000000      0.000000      0.000000
   -12.500000     21.650000      0.000000
     0.000000      0.000000     42.600000
%endblock LatticeVectors

# ---------------------------------------------------------------------------
# Species and Atoms
# ---------------------------------------------------------------------------

NumberOfSpecies        1
NumberOfAtoms        200

%block ChemicalSpeciesLabel
  1   6  C
%endblock ChemicalSpeciesLabel

# ---------------------------------------------------------------------------
# Atomic Coordinates
# ---------------------------------------------------------------------------

AtomicCoordinatesFormat Ang

%block AtomicCoordinatesAndAtomicSpecies
      2.0581525      0.0000001     42.5948555     1
      1.6646062      1.2107654      0.7145383     1
      1.6646087      1.2107654      2.1254631     1
      2.0581522      0.0000005      2.8451432     1
      0.6368888      1.9591670     42.5949974     1
     -0.6368888      1.9591670      0.7150027     1
     -0.6368875      1.9591648      2.1249988     1
      0.6368888      1.9591670      2.8450027     1
     23.3353938      1.2107654     42.5954618     1
     22.9418471      0.0000007      0.7151432     1
     22.9418474      0.0000002      2.1248539     1
     23.3353938      1.2107654      2.8445383     1
     10.8353937     20.4392346     42.5954624     1
     11.8631112     19.6908330      0.7150027     1
     11.8631112     19.6908330      2.1249988     1
     10.8353912     20.4392346      2.8445383     1
     13.1368887     19.6908330     42.5949975     1
    -10.8353938     20.4392346      0.7145383     1
    -10.8353938     20.4392346      2.1254631     1
     13.1368875     19.6908352      2.8450027     1
      2.0581525      0.0000001      4.2548555     1
      1.6646062      1.2107654      4.9745383     1
      1.6646087      1.2107654      6.3854631     1
      2.0581522      0.0000005      7.1051432     1
      0.6368888      1.9591670      4.2549974     1
     -0.6368888      1.9591670      4.9750027     1
     -0.6368875      1.9591648      6.3849988     1
      0.6368888      1.9591670      7.1050027     1
     23.3353938      1.2107654      4.2554618     1
     22.9418471      0.0000007      4.9751432     1
     22.9418474      0.0000002      6.3848539     1
     23.3353938      1.2107654      7.1045383     1
     10.8353937     20.4392346      4.2554624     1
     11.8631112     19.6908330      4.9750027     1
     11.8631112     19.6908330      6.3849988     1
     10.8353912     20.4392346      7.1045383     1
     13.1368887     19.6908330      4.2549975     1
    -10.8353938     20.4392346      4.9745383     1
    -10.8353938     20.4392346      6.3854631     1
     13.1368875     19.6908352      7.1050027     1
      2.0581525      0.0000001      8.5148555     1
      1.6646062      1.2107654      9.2345383     1
      1.6646087      1.2107654     10.6454631     1
      2.0581522      0.0000005     11.3651432     1
      0.6368888      1.9591670      8.5149974     1
     -0.6368888      1.9591670      9.2350027     1
     -0.6368875      1.9591648     10.6449988     1
      0.6368888      1.9591670     11.3650027     1
     23.3353938      1.2107654      8.5154618     1
     22.9418471      0.0000007      9.2351432     1
     22.9418474      0.0000002     10.6448539     1
     23.3353938      1.2107654     11.3645383     1
     10.8353937     20.4392346      8.5154624     1
     11.8631112     19.6908330      9.2350027     1
     11.8631112     19.6908330     10.6449988     1
     10.8353912     20.4392346     11.3645383     1
     13.1368887     19.6908330      8.5149975     1
    -10.8353938     20.4392346      9.2345383     1
    -10.8353938     20.4392346     10.6454631     1
     13.1368875     19.6908352     11.3650027     1
      2.0581525      0.0000001     12.7748555     1
      1.6646062      1.2107654     13.4945383     1
      1.6646087      1.2107654     14.9054631     1
      2.0581522      0.0000005     15.6251432     1
      0.6368888      1.9591670     12.7749974     1
     -0.6368888      1.9591670     13.4950027     1
     -0.6368875      1.9591648     14.9049988     1
      0.6368888      1.9591670     15.6250027     1
     23.3353938      1.2107654     12.7754618     1
     22.9418471      0.0000007     13.4951432     1
     22.9418474      0.0000002     14.9048539     1
     23.3353938      1.2107654     15.6245383     1
     10.8353937     20.4392346     12.7754624     1
     11.8631112     19.6908330     13.4950027     1
     11.8631112     19.6908330     14.9049988     1
     10.8353912     20.4392346     15.6245383     1
     13.1368887     19.6908330     12.7749975     1
    -10.8353938     20.4392346     13.4945383     1
    -10.8353938     20.4392346     14.9054631     1
     13.1368875     19.6908352     15.6250027     1
      2.0581525      0.0000001     17.0348555     1
      1.6646062      1.2107654     17.7545383     1
      1.6646087      1.2107654     19.1654631     1
      2.0581522      0.0000005     19.8851432     1
      0.6368888      1.9591670     17.0349974     1
     -0.6368888      1.9591670     17.7550027     1
     -0.6368875      1.9591648     19.1649988     1
      0.6368888      1.9591670     19.8850027     1
     23.3353938      1.2107654     17.0354618     1
     22.9418471      0.0000007     17.7551432     1
     22.9418474      0.0000002     19.1648539     1
     23.3353938      1.2107654     19.8845383     1
     10.8353937     20.4392346     17.0354624     1
     11.8631112     19.6908330     17.7550027     1
     11.8631112     19.6908330     19.1649988     1
     10.8353912     20.4392346     19.8845383     1
     13.1368887     19.6908330     17.0349975     1
    -10.8353938     20.4392346     17.7545383     1
    -10.8353938     20.4392346     19.1654631     1
     13.1368875     19.6908352     19.8850027     1
      2.0581525      0.0000001     21.2948555     1
      1.6646062      1.2107654     22.0145383     1
      1.6646087      1.2107654     23.4254631     1
      2.0581522      0.0000005     24.1451432     1
      0.6368888      1.9591670     21.2949974     1
     -0.6368888      1.9591670     22.0150027     1
     -0.6368875      1.9591648     23.4249988     1
      0.6368888      1.9591670     24.1450027     1
     23.3353938      1.2107654     21.2954618     1
     22.9418471      0.0000007     22.0151432     1
     22.9418474      0.0000002     23.4248539     1
     23.3353938      1.2107654     24.1445383     1
     10.8353937     20.4392346     21.2954624     1
     11.8631112     19.6908330     22.0150027     1
     11.8631112     19.6908330     23.4249988     1
     10.8353912     20.4392346     24.1445383     1
     13.1368887     19.6908330     21.2949975     1
    -10.8353938     20.4392346     22.0145383     1
    -10.8353938     20.4392346     23.4254631     1
     13.1368875     19.6908352     24.1450027     1
      2.0581525      0.0000001     25.5548555     1
      1.6646062      1.2107654     26.2745383     1
      1.6646087      1.2107654     27.6854631     1
      2.0581522      0.0000005     28.4051432     1
      0.6368888      1.9591670     25.5549974     1
     -0.6368888      1.9591670     26.2750027     1
     -0.6368875      1.9591648     27.6849988     1
      0.6368888      1.9591670     28.4050027     1
     23.3353938      1.2107654     25.5554618     1
     22.9418471      0.0000007     26.2751432     1
     22.9418474      0.0000002     27.6848539     1
     23.3353938      1.2107654     28.4045383     1
     10.8353937     20.4392346     25.5554624     1
     11.8631112     19.6908330     26.2750027     1
     11.8631112     19.6908330     27.6849988     1
     10.8353912     20.4392346     28.4045383     1
     13.1368887     19.6908330     25.5549975     1
    -10.8353938     20.4392346     26.2745383     1
    -10.8353938     20.4392346     27.6854631     1
     13.1368875     19.6908352     28.4050027     1
      2.0581525      0.0000001     29.8148555     1
      1.6646062      1.2107654     30.5345383     1
      1.6646087      1.2107654     31.9454631     1
      2.0581522      0.0000005     32.6651432     1
      0.6368888      1.9591670     29.8149974     1
     -0.6368888      1.9591670     30.5350027     1
     -0.6368875      1.9591648     31.9449988     1
      0.6368888      1.9591670     32.6650027     1
     23.3353938      1.2107654     29.8154618     1
     22.9418471      0.0000007     30.5351432     1
     22.9418474      0.0000002     31.9448539     1
     23.3353938      1.2107654     32.6645383     1
     10.8353937     20.4392346     29.8154624     1
     11.8631112     19.6908330     30.5350027     1
     11.8631112     19.6908330     31.9449988     1
     10.8353912     20.4392346     32.6645383     1
     13.1368887     19.6908330     29.8149975     1
    -10.8353938     20.4392346     30.5345383     1
    -10.8353938     20.4392346     31.9454631     1
     13.1368875     19.6908352     32.6650027     1
      2.0581525      0.0000001     34.0748555     1
      1.6646062      1.2107654     34.7945383     1
      1.6646087      1.2107654     36.2054631     1
      2.0581522      0.0000005     36.9251432     1
      0.6368888      1.9591670     34.0749974     1
     -0.6368888      1.9591670     34.7950027     1
     -0.6368875      1.9591648     36.2049988     1
      0.6368888      1.9591670     36.9250027     1
     23.3353938      1.2107654     34.0754618     1
     22.9418471      0.0000007     34.7951432     1
     22.9418474      0.0000002     36.2048539     1
     23.3353938      1.2107654     36.9245383     1
     10.8353937     20.4392346     34.0754624     1
     11.8631112     19.6908330     34.7950027     1
     11.8631112     19.6908330     36.2049988     1
     10.8353912     20.4392346     36.9245383     1
     13.1368887     19.6908330     34.0749975     1
    -10.8353938     20.4392346     34.7945383     1
    -10.8353938     20.4392346     36.2054631     1
     13.1368875     19.6908352     36.9250027     1
      2.0581525      0.0000001     38.3348555     1
      1.6646062      1.2107654     39.0545383     1
      1.6646087      1.2107654     40.4654631     1
      2.0581522      0.0000005     41.1851432     1
      0.6368888      1.9591670     38.3349974     1
     -0.6368888      1.9591670     39.0550027     1
     -0.6368875      1.9591648     40.4649988     1
      0.6368888      1.9591670     41.1850027     1
     23.3353938      1.2107654     38.3354618     1
     22.9418471      0.0000007     39.0551432     1
     22.9418474      0.0000002     40.4648539     1
     23.3353938      1.2107654     41.1845383     1
     10.8353937     20.4392346     38.3354624     1
     11.8631112     19.6908330     39.0550027     1
     11.8631112     19.6908330     40.4649988     1
     10.8353912     20.4392346     41.1845383     1
     13.1368887     19.6908330     38.3349975     1
    -10.8353938     20.4392346     39.0545383     1
    -10.8353938     20.4392346     40.4654631     1
     13.1368875     19.6908352     41.1850027     1
%endblock AtomicCoordinatesAndAtomicSpecies

# END OF VNL EXPORT
# ---------------------------------------------------------------------------
# ---------------------------------------------------------------------------
