
# ---------------------------------------------------------------------------
# Name and Label
# ---------------------------------------------------------------------------

SystemName          VNL-Export
SystemLabel         VNL-Export

# ---------------------------------------------------------------------------
# Lattice
# ---------------------------------------------------------------------------

LatticeConstant             1.00 Ang

%block LatticeVectors
    25.000000      0.000000      0.000000
   -12.500000     21.650000      0.000000
     0.000000      0.000000   2726.400000
%endblock LatticeVectors

# ---------------------------------------------------------------------------
# Species and Atoms
# ---------------------------------------------------------------------------

NumberOfSpecies        1
NumberOfAtoms      12795

%block ChemicalSpeciesLabel
  1   6  C
%endblock ChemicalSpeciesLabel

# ---------------------------------------------------------------------------
# Atomic Coordinates
# ---------------------------------------------------------------------------

AtomicCoordinatesFormat Ang

%block AtomicCoordinatesAndAtomicSpecies
      2.0581525      0.0000001     42.5948555     1
      1.6646062      1.2107654      0.7145383     1
      1.6646087      1.2107654      2.1254631     1
      2.0581522      0.0000005      2.8451432     1
      0.6368888      1.9591670     42.5949974     1
     -0.6368888      1.9591670      0.7150027     1
     -0.6368875      1.9591648      2.1249988     1
      0.6368888      1.9591670      2.8450027     1
     23.3353938      1.2107654     42.5954618     1
     22.9418471      0.0000007      0.7151432     1
     22.9418474      0.0000002      2.1248539     1
     23.3353938      1.2107654      2.8445383     1
     10.8353937     20.4392346     42.5954624     1
     11.8631112     19.6908330      0.7150027     1
     11.8631112     19.6908330      2.1249988     1
     10.8353912     20.4392346      2.8445383     1
     13.1368887     19.6908330     42.5949975     1
    -10.8353937     20.4392346      0.7145383     1
    -10.8353937     20.4392346      2.1254631     1
     13.1368875     19.6908352      2.8450027     1
      2.0581525      0.0000001      4.2548555     1
      1.6646062      1.2107654      4.9745383     1
      1.6646087      1.2107654      6.3854631     1
      2.0581522      0.0000005      7.1051432     1
      0.6368888      1.9591670      4.2549974     1
     -0.6368888      1.9591670      4.9750027     1
     -0.6368875      1.9591648      6.3849988     1
      0.6368888      1.9591670      7.1050027     1
     23.3353938      1.2107654      4.2554618     1
     22.9418471      0.0000007      4.9751432     1
     22.9418474      0.0000002      6.3848539     1
     23.3353938      1.2107654      7.1045383     1
     10.8353937     20.4392346      4.2554624     1
     11.8631112     19.6908330      4.9750027     1
     11.8631112     19.6908330      6.3849988     1
     10.8353912     20.4392346      7.1045383     1
     13.1368887     19.6908330      4.2549975     1
    -10.8353937     20.4392346      4.9745383     1
    -10.8353937     20.4392346      6.3854631     1
     13.1368875     19.6908352      7.1050027     1
      2.0581525      0.0000001      8.5148555     1
      1.6646062      1.2107654      9.2345383     1
      1.6646087      1.2107654     10.6454631     1
      2.0581522      0.0000005     11.3651432     1
      0.6368888      1.9591670      8.5149974     1
     -0.6368888      1.9591670      9.2350027     1
     -0.6368875      1.9591648     10.6449988     1
      0.6368888      1.9591670     11.3650027     1
     23.3353938      1.2107654      8.5154618     1
     22.9418471      0.0000007      9.2351432     1
     22.9418474      0.0000002     10.6448539     1
     23.3353938      1.2107654     11.3645383     1
     10.8353937     20.4392346      8.5154624     1
     11.8631112     19.6908330      9.2350027     1
     11.8631112     19.6908330     10.6449988     1
     10.8353912     20.4392346     11.3645383     1
     13.1368887     19.6908330      8.5149975     1
    -10.8353937     20.4392346      9.2345383     1
    -10.8353937     20.4392346     10.6454631     1
     13.1368875     19.6908352     11.3650027     1
      2.0581525      0.0000001     12.7748555     1
      1.6646062      1.2107654     13.4945383     1
      1.6646087      1.2107654     14.9054631     1
      2.0581522      0.0000005     15.6251432     1
      0.6368888      1.9591670     12.7749974     1
     -0.6368888      1.9591670     13.4950027     1
     -0.6368875      1.9591648     14.9049988     1
      0.6368888      1.9591670     15.6250027     1
     23.3353938      1.2107654     12.7754618     1
     22.9418471      0.0000007     13.4951432     1
     22.9418474      0.0000002     14.9048539     1
     23.3353938      1.2107654     15.6245383     1
     10.8353937     20.4392346     12.7754624     1
     11.8631112     19.6908330     13.4950027     1
     11.8631112     19.6908330     14.9049988     1
     10.8353912     20.4392346     15.6245383     1
     13.1368887     19.6908330     12.7749975     1
    -10.8353937     20.4392346     13.4945383     1
    -10.8353937     20.4392346     14.9054631     1
     13.1368875     19.6908352     15.6250027     1
      2.0581525      0.0000001     17.0348555     1
      1.6646062      1.2107654     17.7545383     1
      1.6646087      1.2107654     19.1654631     1
      2.0581522      0.0000005     19.8851432     1
      0.6368888      1.9591670     17.0349974     1
     -0.6368888      1.9591670     17.7550027     1
     -0.6368875      1.9591648     19.1649988     1
      0.6368888      1.9591670     19.8850027     1
     23.3353938      1.2107654     17.0354618     1
     22.9418471      0.0000007     17.7551432     1
     22.9418474      0.0000002     19.1648539     1
     23.3353938      1.2107654     19.8845383     1
     10.8353937     20.4392346     17.0354624     1
     11.8631112     19.6908330     17.7550027     1
     11.8631112     19.6908330     19.1649988     1
     10.8353912     20.4392346     19.8845383     1
     13.1368887     19.6908330     17.0349975     1
    -10.8353937     20.4392346     17.7545383     1
    -10.8353937     20.4392346     19.1654631     1
     13.1368875     19.6908352     19.8850027     1
      2.0581525      0.0000001     21.2948555     1
      1.6646062      1.2107654     22.0145383     1
      1.6646087      1.2107654     23.4254631     1
      2.0581522      0.0000005     24.1451432     1
      0.6368888      1.9591670     21.2949974     1
     -0.6368888      1.9591670     22.0150027     1
     -0.6368875      1.9591648     23.4249988     1
      0.6368888      1.9591670     24.1450027     1
     23.3353938      1.2107654     21.2954618     1
     22.9418471      0.0000007     22.0151432     1
     22.9418474      0.0000002     23.4248539     1
     23.3353938      1.2107654     24.1445383     1
     10.8353937     20.4392346     21.2954624     1
     11.8631112     19.6908330     22.0150027     1
     11.8631112     19.6908330     23.4249988     1
     10.8353912     20.4392346     24.1445383     1
     13.1368887     19.6908330     21.2949975     1
    -10.8353937     20.4392346     22.0145383     1
    -10.8353937     20.4392346     23.4254631     1
     13.1368875     19.6908352     24.1450027     1
      2.0581525      0.0000001     25.5548555     1
      1.6646062      1.2107654     26.2745383     1
      1.6646087      1.2107654     27.6854631     1
      2.0581522      0.0000005     28.4051432     1
      0.6368888      1.9591670     25.5549974     1
     -0.6368888      1.9591670     26.2750027     1
     -0.6368875      1.9591648     27.6849988     1
      0.6368888      1.9591670     28.4050027     1
     23.3353938      1.2107654     25.5554618     1
     22.9418471      0.0000007     26.2751432     1
     22.9418474      0.0000002     27.6848539     1
     23.3353938      1.2107654     28.4045383     1
     10.8353937     20.4392346     25.5554624     1
     11.8631112     19.6908330     26.2750027     1
     11.8631112     19.6908330     27.6849988     1
     10.8353912     20.4392346     28.4045383     1
     13.1368887     19.6908330     25.5549975     1
    -10.8353937     20.4392346     26.2745383     1
    -10.8353937     20.4392346     27.6854631     1
     13.1368875     19.6908352     28.4050027     1
      2.0581525      0.0000001     29.8148555     1
      1.6646062      1.2107654     30.5345383     1
      1.6646087      1.2107654     31.9454631     1
      2.0581522      0.0000005     32.6651432     1
      0.6368888      1.9591670     29.8149974     1
     -0.6368888      1.9591670     30.5350027     1
     -0.6368875      1.9591648     31.9449988     1
      0.6368888      1.9591670     32.6650027     1
     23.3353938      1.2107654     29.8154618     1
     22.9418471      0.0000007     30.5351432     1
     22.9418474      0.0000002     31.9448539     1
     23.3353938      1.2107654     32.6645383     1
     10.8353937     20.4392346     29.8154624     1
     11.8631112     19.6908330     30.5350027     1
     11.8631112     19.6908330     31.9449988     1
     10.8353912     20.4392346     32.6645383     1
     13.1368887     19.6908330     29.8149975     1
    -10.8353937     20.4392346     30.5345383     1
    -10.8353937     20.4392346     31.9454631     1
     13.1368875     19.6908352     32.6650027     1
      2.0581525      0.0000001     34.0748555     1
      1.6646062      1.2107654     34.7945383     1
      1.6646087      1.2107654     36.2054631     1
      2.0581522      0.0000005     36.9251432     1
      0.6368888      1.9591670     34.0749974     1
     -0.6368888      1.9591670     34.7950027     1
     -0.6368875      1.9591648     36.2049988     1
      0.6368888      1.9591670     36.9250027     1
     23.3353938      1.2107654     34.0754618     1
     22.9418471      0.0000007     34.7951432     1
     22.9418474      0.0000002     36.2048539     1
     23.3353938      1.2107654     36.9245383     1
     10.8353937     20.4392346     34.0754624     1
     11.8631112     19.6908330     34.7950027     1
     11.8631112     19.6908330     36.2049988     1
     10.8353912     20.4392346     36.9245383     1
     13.1368887     19.6908330     34.0749975     1
    -10.8353937     20.4392346     34.7945383     1
    -10.8353937     20.4392346     36.2054631     1
     13.1368875     19.6908352     36.9250027     1
      2.0581525      0.0000001     38.3348555     1
      1.6646062      1.2107654     39.0545383     1
      1.6646087      1.2107654     40.4654631     1
      2.0581522      0.0000005     41.1851432     1
      0.6368888      1.9591670     38.3349974     1
     -0.6368888      1.9591670     39.0550027     1
     -0.6368875      1.9591648     40.4649988     1
      0.6368888      1.9591670     41.1850027     1
     23.3353938      1.2107654     38.3354618     1
     22.9418471      0.0000007     39.0551432     1
     22.9418474      0.0000002     40.4648539     1
     23.3353938      1.2107654     41.1845383     1
     10.8353937     20.4392346     38.3354624     1
     11.8631112     19.6908330     39.0550027     1
     11.8631112     19.6908330     40.4649988     1
     10.8353912     20.4392346     41.1845383     1
     13.1368887     19.6908330     38.3349975     1
    -10.8353937     20.4392346     39.0545383     1
    -10.8353937     20.4392346     40.4654631     1
     13.1368875     19.6908352     41.1850027     1
      2.0581525      0.0000001     85.1948555     1
      1.6646062      1.2107654     43.3145383     1
      1.6646087      1.2107654     44.7254631     1
      2.0581522      0.0000005     45.4451432     1
      0.6368888      1.9591670     85.1949974     1
     -0.6368888      1.9591670     43.3150027     1
     -0.6368875      1.9591648     44.7249988     1
      0.6368888      1.9591670     45.4450027     1
     23.3353938      1.2107654     85.1954618     1
     22.9418471      0.0000007     43.3151432     1
     22.9418474      0.0000002     44.7248539     1
     23.3353938      1.2107654     45.4445383     1
     10.8353937     20.4392346     85.1954624     1
     11.8631112     19.6908330     43.3150027     1
     11.8631112     19.6908330     44.7249988     1
     10.8353912     20.4392346     45.4445383     1
     13.1368887     19.6908330     85.1949975     1
    -10.8353937     20.4392346     43.3145383     1
    -10.8353937     20.4392346     44.7254631     1
     13.1368875     19.6908352     45.4450027     1
      2.0581525      0.0000001     46.8548555     1
      1.6646062      1.2107654     47.5745383     1
      1.6646087      1.2107654     48.9854631     1
      2.0581522      0.0000005     49.7051432     1
      0.6368888      1.9591670     46.8549974     1
     -0.6368888      1.9591670     47.5750027     1
     -0.6368875      1.9591648     48.9849988     1
      0.6368888      1.9591670     49.7050027     1
     23.3353938      1.2107654     46.8554618     1
     22.9418471      0.0000007     47.5751432     1
     22.9418474      0.0000002     48.9848539     1
     23.3353938      1.2107654     49.7045383     1
     10.8353937     20.4392346     46.8554624     1
     11.8631112     19.6908330     47.5750027     1
     11.8631112     19.6908330     48.9849988     1
     10.8353912     20.4392346     49.7045383     1
     13.1368887     19.6908330     46.8549975     1
    -10.8353937     20.4392346     47.5745383     1
    -10.8353937     20.4392346     48.9854631     1
     13.1368875     19.6908352     49.7050027     1
      2.0581525      0.0000001     51.1148555     1
      1.6646062      1.2107654     51.8345383     1
      1.6646087      1.2107654     53.2454631     1
      2.0581522      0.0000005     53.9651432     1
      0.6368888      1.9591670     51.1149974     1
     -0.6368888      1.9591670     51.8350027     1
     -0.6368875      1.9591648     53.2449988     1
      0.6368888      1.9591670     53.9650027     1
     23.3353938      1.2107654     51.1154618     1
     22.9418471      0.0000007     51.8351432     1
     22.9418474      0.0000002     53.2448539     1
     23.3353938      1.2107654     53.9645383     1
     10.8353937     20.4392346     51.1154624     1
     11.8631112     19.6908330     51.8350027     1
     11.8631112     19.6908330     53.2449988     1
     10.8353912     20.4392346     53.9645383     1
     13.1368887     19.6908330     51.1149975     1
    -10.8353937     20.4392346     51.8345383     1
    -10.8353937     20.4392346     53.2454631     1
     13.1368875     19.6908352     53.9650027     1
      2.0581525      0.0000001     55.3748555     1
      1.6646062      1.2107654     56.0945383     1
      1.6646087      1.2107654     57.5054631     1
      2.0581522      0.0000005     58.2251432     1
      0.6368888      1.9591670     55.3749974     1
     -0.6368888      1.9591670     56.0950027     1
     -0.6368875      1.9591648     57.5049988     1
      0.6368888      1.9591670     58.2250027     1
     23.3353938      1.2107654     55.3754618     1
     22.9418471      0.0000007     56.0951432     1
     22.9418474      0.0000002     57.5048539     1
     23.3353938      1.2107654     58.2245383     1
     10.8353937     20.4392346     55.3754624     1
     11.8631112     19.6908330     56.0950027     1
     11.8631112     19.6908330     57.5049988     1
     10.8353912     20.4392346     58.2245383     1
     13.1368887     19.6908330     55.3749975     1
    -10.8353937     20.4392346     56.0945383     1
    -10.8353937     20.4392346     57.5054631     1
     13.1368875     19.6908352     58.2250027     1
      2.0581525      0.0000001     59.6348555     1
      1.6646062      1.2107654     60.3545383     1
      1.6646087      1.2107654     61.7654631     1
      2.0581522      0.0000005     62.4851432     1
      0.6368888      1.9591670     59.6349974     1
     -0.6368888      1.9591670     60.3550027     1
     -0.6368875      1.9591648     61.7649988     1
      0.6368888      1.9591670     62.4850027     1
     23.3353938      1.2107654     59.6354618     1
     22.9418471      0.0000007     60.3551432     1
     22.9418474      0.0000002     61.7648539     1
     23.3353938      1.2107654     62.4845383     1
     10.8353937     20.4392346     59.6354624     1
     11.8631112     19.6908330     60.3550027     1
     11.8631112     19.6908330     61.7649988     1
     10.8353912     20.4392346     62.4845383     1
     13.1368887     19.6908330     59.6349975     1
    -10.8353937     20.4392346     60.3545383     1
    -10.8353937     20.4392346     61.7654631     1
     13.1368875     19.6908352     62.4850027     1
      2.0581525      0.0000001     63.8948555     1
      1.6646062      1.2107654     64.6145383     1
      1.6646087      1.2107654     66.0254631     1
      2.0581522      0.0000005     66.7451432     1
      0.6368888      1.9591670     63.8949974     1
     -0.6368888      1.9591670     64.6150027     1
     -0.6368875      1.9591648     66.0249988     1
      0.6368888      1.9591670     66.7450027     1
     23.3353938      1.2107654     63.8954618     1
     22.9418471      0.0000007     64.6151432     1
     22.9418474      0.0000002     66.0248539     1
     23.3353938      1.2107654     66.7445383     1
     10.8353937     20.4392346     63.8954624     1
     11.8631112     19.6908330     64.6150027     1
     11.8631112     19.6908330     66.0249988     1
     10.8353912     20.4392346     66.7445383     1
     13.1368887     19.6908330     63.8949975     1
    -10.8353937     20.4392346     64.6145383     1
    -10.8353937     20.4392346     66.0254631     1
     13.1368875     19.6908352     66.7450027     1
      2.0581525      0.0000001     68.1548555     1
      1.6646062      1.2107654     68.8745383     1
      1.6646087      1.2107654     70.2854631     1
      2.0581522      0.0000005     71.0051432     1
      0.6368888      1.9591670     68.1549974     1
     -0.6368888      1.9591670     68.8750027     1
     -0.6368875      1.9591648     70.2849988     1
      0.6368888      1.9591670     71.0050027     1
     23.3353938      1.2107654     68.1554618     1
     22.9418471      0.0000007     68.8751432     1
     22.9418474      0.0000002     70.2848539     1
     23.3353938      1.2107654     71.0045383     1
     10.8353937     20.4392346     68.1554624     1
     11.8631112     19.6908330     68.8750027     1
     11.8631112     19.6908330     70.2849988     1
     10.8353912     20.4392346     71.0045383     1
     13.1368887     19.6908330     68.1549975     1
    -10.8353937     20.4392346     68.8745383     1
    -10.8353937     20.4392346     70.2854631     1
     13.1368875     19.6908352     71.0050027     1
      2.0581525      0.0000001     72.4148555     1
      1.6646062      1.2107654     73.1345383     1
      1.6646087      1.2107654     74.5454631     1
      2.0581522      0.0000005     75.2651432     1
      0.6368888      1.9591670     72.4149974     1
     -0.6368888      1.9591670     73.1350027     1
     -0.6368875      1.9591648     74.5449988     1
      0.6368888      1.9591670     75.2650027     1
     23.3353938      1.2107654     72.4154618     1
     22.9418471      0.0000007     73.1351432     1
     22.9418474      0.0000002     74.5448539     1
     23.3353938      1.2107654     75.2645383     1
     10.8353937     20.4392346     72.4154624     1
     11.8631112     19.6908330     73.1350027     1
     11.8631112     19.6908330     74.5449988     1
     10.8353912     20.4392346     75.2645383     1
     13.1368887     19.6908330     72.4149975     1
    -10.8353937     20.4392346     73.1345383     1
    -10.8353937     20.4392346     74.5454631     1
     13.1368875     19.6908352     75.2650027     1
      2.0581525      0.0000001     76.6748555     1
      1.6646062      1.2107654     77.3945383     1
      1.6646087      1.2107654     78.8054631     1
      2.0581522      0.0000005     79.5251432     1
      0.6368888      1.9591670     76.6749974     1
     -0.6368888      1.9591670     77.3950027     1
     -0.6368875      1.9591648     78.8049988     1
      0.6368888      1.9591670     79.5250027     1
     23.3353938      1.2107654     76.6754618     1
     22.9418471      0.0000007     77.3951432     1
     22.9418474      0.0000002     78.8048539     1
     23.3353938      1.2107654     79.5245383     1
     10.8353937     20.4392346     76.6754624     1
     11.8631112     19.6908330     77.3950027     1
     11.8631112     19.6908330     78.8049988     1
     10.8353912     20.4392346     79.5245383     1
     13.1368887     19.6908330     76.6749975     1
    -10.8353937     20.4392346     77.3945383     1
    -10.8353937     20.4392346     78.8054631     1
     13.1368875     19.6908352     79.5250027     1
      2.0581525      0.0000001     80.9348555     1
      1.6646062      1.2107654     81.6545383     1
      1.6646087      1.2107654     83.0654631     1
      2.0581522      0.0000005     83.7851432     1
      0.6368888      1.9591670     80.9349974     1
     -0.6368888      1.9591670     81.6550027     1
     -0.6368875      1.9591648     83.0649988     1
      0.6368888      1.9591670     83.7850027     1
     23.3353938      1.2107654     80.9354618     1
     22.9418471      0.0000007     81.6551432     1
     22.9418474      0.0000002     83.0648539     1
     23.3353938      1.2107654     83.7845383     1
     10.8353937     20.4392346     80.9354624     1
     11.8631112     19.6908330     81.6550027     1
     11.8631112     19.6908330     83.0649988     1
     10.8353912     20.4392346     83.7845383     1
     13.1368887     19.6908330     80.9349975     1
    -10.8353937     20.4392346     81.6545383     1
    -10.8353937     20.4392346     83.0654631     1
     13.1368875     19.6908352     83.7850027     1
      2.0581525      0.0000001    127.7948555     1
      1.6646062      1.2107654     85.9145383     1
      1.6646087      1.2107654     87.3254631     1
      2.0581522      0.0000005     88.0451432     1
      0.6368888      1.9591670    127.7949974     1
     -0.6368888      1.9591670     85.9150027     1
     -0.6368875      1.9591648     87.3249988     1
      0.6368888      1.9591670     88.0450027     1
     23.3353938      1.2107654    127.7954618     1
     22.9418471      0.0000007     85.9151432     1
     22.9418474      0.0000002     87.3248539     1
     23.3353938      1.2107654     88.0445383     1
     10.8353937     20.4392346    127.7954624     1
     11.8631112     19.6908330     85.9150027     1
     11.8631112     19.6908330     87.3249988     1
     10.8353912     20.4392346     88.0445383     1
     13.1368887     19.6908330    127.7949975     1
    -10.8353937     20.4392346     85.9145383     1
    -10.8353937     20.4392346     87.3254631     1
     13.1368875     19.6908352     88.0450027     1
      2.0581525      0.0000001     89.4548555     1
      1.6646062      1.2107654     90.1745383     1
      1.6646087      1.2107654     91.5854631     1
      2.0581522      0.0000005     92.3051432     1
      0.6368888      1.9591670     89.4549974     1
     -0.6368888      1.9591670     90.1750027     1
     -0.6368875      1.9591648     91.5849988     1
      0.6368888      1.9591670     92.3050027     1
     23.3353938      1.2107654     89.4554618     1
     22.9418471      0.0000007     90.1751432     1
     22.9418474      0.0000002     91.5848539     1
     23.3353938      1.2107654     92.3045383     1
     10.8353937     20.4392346     89.4554624     1
     11.8631112     19.6908330     90.1750027     1
     11.8631112     19.6908330     91.5849988     1
     10.8353912     20.4392346     92.3045383     1
     13.1368887     19.6908330     89.4549975     1
    -10.8353937     20.4392346     90.1745383     1
    -10.8353937     20.4392346     91.5854631     1
     13.1368875     19.6908352     92.3050027     1
      2.0581525      0.0000001     93.7148555     1
      1.6646062      1.2107654     94.4345383     1
      1.6646087      1.2107654     95.8454631     1
      2.0581522      0.0000005     96.5651432     1
      0.6368888      1.9591670     93.7149974     1
     -0.6368888      1.9591670     94.4350027     1
     -0.6368875      1.9591648     95.8449988     1
      0.6368888      1.9591670     96.5650027     1
     23.3353938      1.2107654     93.7154618     1
     22.9418471      0.0000007     94.4351432     1
     22.9418474      0.0000002     95.8448539     1
     23.3353938      1.2107654     96.5645383     1
     10.8353937     20.4392346     93.7154624     1
     11.8631112     19.6908330     94.4350027     1
     11.8631112     19.6908330     95.8449988     1
     10.8353912     20.4392346     96.5645383     1
     13.1368887     19.6908330     93.7149975     1
    -10.8353937     20.4392346     94.4345383     1
    -10.8353937     20.4392346     95.8454631     1
     13.1368875     19.6908352     96.5650027     1
      2.0581525      0.0000001     97.9748555     1
      1.6646062      1.2107654     98.6945383     1
      1.6646087      1.2107654    100.1054631     1
      2.0581522      0.0000005    100.8251432     1
      0.6368888      1.9591670     97.9749974     1
     -0.6368888      1.9591670     98.6950027     1
     -0.6368875      1.9591648    100.1049988     1
      0.6368888      1.9591670    100.8250027     1
     23.3353938      1.2107654     97.9754618     1
     22.9418471      0.0000007     98.6951432     1
     22.9418474      0.0000002    100.1048539     1
     23.3353938      1.2107654    100.8245383     1
     10.8353937     20.4392346     97.9754624     1
     11.8631112     19.6908330     98.6950027     1
     11.8631112     19.6908330    100.1049988     1
     10.8353912     20.4392346    100.8245383     1
     13.1368887     19.6908330     97.9749975     1
    -10.8353937     20.4392346     98.6945383     1
    -10.8353937     20.4392346    100.1054631     1
     13.1368875     19.6908352    100.8250027     1
      2.0581525      0.0000001    102.2348555     1
      1.6646062      1.2107654    102.9545383     1
      1.6646087      1.2107654    104.3654631     1
      2.0581522      0.0000005    105.0851432     1
      0.6368888      1.9591670    102.2349974     1
     -0.6368888      1.9591670    102.9550027     1
     -0.6368875      1.9591648    104.3649988     1
      0.6368888      1.9591670    105.0850027     1
     23.3353938      1.2107654    102.2354618     1
     22.9418471      0.0000007    102.9551432     1
     22.9418474      0.0000002    104.3648539     1
     23.3353938      1.2107654    105.0845383     1
     10.8353937     20.4392346    102.2354624     1
     11.8631112     19.6908330    102.9550027     1
     11.8631112     19.6908330    104.3649988     1
     10.8353912     20.4392346    105.0845383     1
     13.1368887     19.6908330    102.2349975     1
    -10.8353937     20.4392346    102.9545383     1
    -10.8353937     20.4392346    104.3654631     1
     13.1368875     19.6908352    105.0850027     1
      2.0581525      0.0000001    106.4948555     1
      1.6646062      1.2107654    107.2145383     1
      1.6646087      1.2107654    108.6254631     1
      2.0581522      0.0000005    109.3451432     1
      0.6368888      1.9591670    106.4949974     1
     -0.6368888      1.9591670    107.2150027     1
     -0.6368875      1.9591648    108.6249988     1
      0.6368888      1.9591670    109.3450027     1
     23.3353938      1.2107654    106.4954618     1
     22.9418471      0.0000007    107.2151432     1
     22.9418474      0.0000002    108.6248539     1
     23.3353938      1.2107654    109.3445383     1
     10.8353937     20.4392346    106.4954624     1
     11.8631112     19.6908330    107.2150027     1
     11.8631112     19.6908330    108.6249988     1
     10.8353912     20.4392346    109.3445383     1
     13.1368887     19.6908330    106.4949975     1
    -10.8353937     20.4392346    107.2145383     1
    -10.8353937     20.4392346    108.6254631     1
     13.1368875     19.6908352    109.3450027     1
      2.0581525      0.0000001    110.7548555     1
      1.6646062      1.2107654    111.4745383     1
      1.6646087      1.2107654    112.8854631     1
      2.0581522      0.0000005    113.6051432     1
      0.6368888      1.9591670    110.7549974     1
     -0.6368888      1.9591670    111.4750027     1
     -0.6368875      1.9591648    112.8849988     1
      0.6368888      1.9591670    113.6050027     1
     23.3353938      1.2107654    110.7554618     1
     22.9418471      0.0000007    111.4751432     1
     22.9418474      0.0000002    112.8848539     1
     23.3353938      1.2107654    113.6045383     1
     10.8353937     20.4392346    110.7554624     1
     11.8631112     19.6908330    111.4750027     1
     11.8631112     19.6908330    112.8849988     1
     10.8353912     20.4392346    113.6045383     1
     13.1368887     19.6908330    110.7549975     1
    -10.8353937     20.4392346    111.4745383     1
    -10.8353937     20.4392346    112.8854631     1
     13.1368875     19.6908352    113.6050027     1
      2.0581525      0.0000001    115.0148555     1
      1.6646062      1.2107654    115.7345383     1
      1.6646087      1.2107654    117.1454631     1