lattice_vector  25.00000000 0.00000000 0.00000000
lattice_vector  0.00000000 25.00000000 0.00000000
lattice_vector  0.00000000 0.00000000 7.26000000

atom_frac 0.13342159 0.00000000 0.00000000 Ge
atom_frac 0.10794034 0.07842324 0.83333333 Ge
atom_frac 0.10794034 0.07842324 0.50000000 Ge
atom_frac 0.04122954 0.12689148 0.33333333 Ge
atom_frac 0.04122954 0.12689148 0.00000000 Ge
atom_frac 0.95877046 0.12689148 0.83333333 Ge
atom_frac 0.95877046 0.12689148 0.50000000 Ge
atom_frac 0.89205966 0.07842324 0.33333333 Ge
atom_frac 0.89205966 0.07842324 0.00000000 Ge
atom_frac 0.86657841 0.00000000 0.83333333 Ge
atom_frac 0.86657841 0.00000000 0.50000000 Ge
atom_frac 0.89205966 0.92157676 0.33333333 Ge
atom_frac 0.89205966 0.92157676 0.00000000 Ge
atom_frac 0.95877046 0.87310852 0.83333333 Ge
atom_frac 0.95877046 0.87310852 0.50000000 Ge
atom_frac 0.04122954 0.87310852 0.33333333 Ge
atom_frac 0.04122954 0.87310852 0.00000000 Ge
atom_frac 0.10794034 0.92157676 0.83333333 Ge
atom_frac 0.10794034 0.92157676 0.50000000 Ge
atom_frac 0.13342159 0.00000000 0.33333333 Ge
