lattice_vector  5.51398400 -3.18350000 0.00000000
lattice_vector  0.00000000 6.36700000 0.00000000
lattice_vector  0.00000000 0.00000000 15.83300000

atom_frac 0.90069993 0.66666691 0.25000000 Ba
atom_frac 0.33333303 0.23403309 0.58333298 Ba
atom_frac 0.76596704 0.09930000 0.91666702 Ba
atom_frac 0.33333303 0.37629994 0.08269999 Sn
atom_frac 0.62370003 0.95703299 0.41603297 Sn
atom_frac 0.04296694 0.66666691 0.74936702 Sn
atom_frac 0.26100003 0.24709998 0.33939999 Cu
atom_frac 0.75290008 0.01390002 0.67273303 Cu
atom_frac 0.98610007 0.73900009 0.00606701 Cu
atom_frac 0.68120002 0.08589999 0.16060001 Cu
atom_frac 0.91410004 0.59530006 0.49393299 Cu
atom_frac 0.40469994 0.31879995 0.82726697 Cu
atom_frac 0.38189991 0.17369992 0.20079997 S
atom_frac 0.82630000 0.20819995 0.53413301 S
atom_frac 0.79180009 0.61809998 0.86746700 S
atom_frac 0.87550000 0.16109993 0.29660001 S
atom_frac 0.83889997 0.71440004 0.62993299 S
atom_frac 0.28560003 0.12450003 0.96326697 S
atom_frac 0.98560007 0.42990008 0.08260001 S
atom_frac 0.57009995 0.55570005 0.41593299 S
atom_frac 0.44429998 0.01440003 0.74926697 S
atom_frac 0.68010009 0.77709999 0.08160001 S
atom_frac 0.22289999 0.90300002 0.41493299 S
atom_frac 0.09699992 0.31989999 0.74826697 S
