# Material:  Cu2BaSnS4
# Structure: Experimental structure used (T = ??? K)
# Source:    Anorganische und Allgemeine Chemie 426, 281-287 (1976))
# Keywords:  3D, Generated, Article, Bulk
# Note:      
lattice_vector    5.513984   -3.183500    0.000000
lattice_vector    0.000000    6.367000    0.000000
lattice_vector    0.000000    0.000000   15.833000
atom              4.966445    1.377290    3.958250 Ba
atom              1.837993    0.428923    9.235911 Ba
atom              4.223530   -1.806213   14.513589 Ba
atom              1.837993    1.334736    1.309389 Sn
atom              3.439072    4.107880    6.587050 Sn
atom              0.236919    4.107883   11.864728 Sn
atom              1.439150    0.742392    5.373720 Cu
atom              4.151479   -2.308356   10.651382 Cu
atom              5.437340    1.565964    0.096059 Cu
atom              3.756126   -1.621675    2.542780 Cu
atom              5.040333    0.880238    7.820441 Cu
atom              2.231509    0.741437   13.098118 Cu
atom              2.105790   -0.109831    3.179266 S
atom              4.556205   -1.304917    8.456928 S
atom              4.365973    1.414747   13.734605 S
atom              4.827493   -1.761431    4.696068 S
atom              4.625681    1.877947    9.973729 S
atom              1.574794   -0.116516   15.251406 S
atom              5.434583   -0.400484    1.307806 S
atom              3.143522    1.723229    6.585467 S
atom              2.449863   -1.322744   11.863144 S
atom              3.750061    2.782697    1.291973 S
atom              1.229067    5.039799    6.569634 S
atom              0.534856    1.728004   11.847311 S
# Help a brother out (was generated from CIF file):
#************************************************************************************
#*                   Generated by cif2cell 1.2.2 2015-05-13 14:10                   *
#*  T. Bjorkman, Comp. Phys. Commun. 182, 1183-1186 (2011). Please cite generously. *
#*                                                                                  *
#*                                         ()                                       *
#*             Failed to get author information, No journal information             *
#************************************************************************************
