lattice_vector  0.00000000 2.71430000 2.71430000
lattice_vector  2.71430000 0.00000000 2.71430000
lattice_vector  2.71430000 2.71430000 0.00000000

atom_frac 0.00000000 0.00000000 0.00000000 Si
atom_frac 0.25000000 0.25000000 0.25000000 Si
