lattice_vector  11.68300464 0.00000000 0.00000000
lattice_vector  0.00000000 11.68300464 0.00000000
lattice_vector  0.00000000 0.00000000 11.68300464

atom_frac 0.09513082 0.10978131 0.72070053 O
atom_frac 0.03817604 0.13111463 0.66455188 H
atom_frac 0.12982447 0.18036986 0.73979350 H
atom_frac 0.06281520 0.55774804 0.77833428 O
atom_frac 0.12819384 0.60351440 0.81261009 H
atom_frac 0.09223774 0.47690321 0.77238521 H
atom_frac 0.09338850 0.21679621 0.03801918 O
atom_frac 0.15590267 0.17676974 0.99314162 H
atom_frac 0.01425352 0.18589198 0.01610325 H
atom_frac 0.42834838 0.90932650 0.84367451 O
atom_frac 0.48270723 0.85080926 0.81468775 H
atom_frac 0.36033667 0.88927181 0.79707848 H
atom_frac 0.90758437 0.11643695 0.53150541 O
atom_frac 0.86127234 0.16150382 0.47945994 H
atom_frac 0.95976259 0.07444426 0.48552421 H
atom_frac 0.21213211 0.97592725 0.23696246 O
atom_frac 0.28968999 0.00733622 0.24560722 H
atom_frac 0.21640401 0.93206118 0.16225919 H
atom_frac 0.14262300 0.67455133 0.57627825 O
atom_frac 0.22083292 0.65334021 0.60202767 H
atom_frac 0.09688092 0.67571240 0.64207097 H
atom_frac 0.21087098 0.89659383 0.99722575 O
atom_frac 0.12735199 0.89650360 0.98783967 H
atom_frac 0.22888672 0.96874593 0.95376116 H
atom_frac 0.95397445 0.33377937 0.31428798 O
atom_frac 0.96702803 0.25073678 0.28718766 H
atom_frac 0.98707328 0.37963615 0.25321757 H
atom_frac 0.04693157 0.46174331 0.13409170 O
atom_frac 0.04367971 0.54835899 0.13524972 H
atom_frac 0.98583748 0.44006542 0.07892174 H
atom_frac 0.99106338 0.97812307 0.93278702 O
atom_frac 0.96372897 0.93138714 0.86987795 H
atom_frac 0.02265188 0.04194825 0.89338827 H
atom_frac 0.48925625 0.43720064 0.16541596 O
atom_frac 0.47344822 0.37996509 0.22210024 H
atom_frac 0.56656792 0.41783302 0.13922360 H
atom_frac 0.53087695 0.52729041 0.39427756 O
atom_frac 0.57622988 0.54803515 0.32995983 H
atom_frac 0.51137711 0.44496198 0.37908036 H
atom_frac 0.81460258 0.47828726 0.49948326 O
atom_frac 0.88975751 0.49231703 0.46862013 H
atom_frac 0.76529346 0.52141200 0.44863559 H
atom_frac 0.01812388 0.37147489 0.55488680 O
atom_frac 0.99599193 0.34664805 0.47268538 H
atom_frac 0.09944200 0.35981651 0.55704978 H
atom_frac 0.34541630 0.61292857 0.66930556 O
atom_frac 0.42644936 0.62701767 0.64940107 H
atom_frac 0.32828379 0.63464782 0.74613042 H
atom_frac 0.98386843 0.10035955 0.30308486 O
atom_frac 0.05391493 0.07470828 0.26844677 H
atom_frac 0.92421173 0.05394508 0.26361943 H
atom_frac 0.01693870 0.70275360 0.17217355 O
atom_frac 0.99431620 0.78887519 0.17003692 H
atom_frac 0.10142277 0.70107637 0.15455742 H
atom_frac 0.64592813 0.02321012 0.34474898 O
atom_frac 0.58723244 0.06623234 0.38504129 H
atom_frac 0.61452649 0.94461304 0.34425889 H
atom_frac 0.58639362 0.07748025 0.79904749 O
atom_frac 0.56263634 0.13799126 0.74547738 H
atom_frac 0.52636386 0.01891376 0.78882059 H
atom_frac 0.02300538 0.56880997 0.37899329 O
atom_frac 0.05381681 0.61788488 0.43931656 H
atom_frac 0.00747132 0.62786017 0.31807334 H
atom_frac 0.25686580 0.45568518 0.29482726 O
atom_frac 0.18190331 0.49093241 0.30703960 H
atom_frac 0.29622655 0.51009750 0.34489223 H
atom_frac 0.22409059 0.90787963 0.72786936 O
atom_frac 0.17224694 0.97054131 0.73486915 H
atom_frac 0.17608297 0.84639620 0.70915412 H
atom_frac 0.43768694 0.89007006 0.08337359 O
atom_frac 0.38245753 0.83124335 0.10396466 H
atom_frac 0.42071191 0.89325140 0.00086751 H
atom_frac 0.28425378 0.11511416 0.93139362 O
atom_frac 0.28919716 0.14054592 0.85346234 H
atom_frac 0.35062528 0.14572172 0.96999184 H
atom_frac 0.73289309 0.33731805 0.24641433 O
atom_frac 0.81888374 0.32690282 0.26664476 H
atom_frac 0.71883275 0.26596382 0.20523252 H
atom_frac 0.87266249 0.37068057 0.98096565 O
atom_frac 0.87847416 0.39644988 0.90122916 H
atom_frac 0.79284525 0.39250158 0.00604440 H
atom_frac 0.39544808 0.37603079 0.82815917 O
atom_frac 0.43361614 0.45250182 0.81117935 H
atom_frac 0.39847321 0.36695207 0.91348116 H
atom_frac 0.87150051 0.14995945 0.02637615 O
atom_frac 0.85582442 0.23406741 0.02374659 H
atom_frac 0.86522068 0.12674132 0.94733665 H
atom_frac 0.49006920 0.05672212 0.51844772 O
atom_frac 0.42394273 0.00334571 0.50278314 H
atom_frac 0.45288711 0.12060363 0.55971342 H
atom_frac 0.32534120 0.67140296 0.41970196 O
atom_frac 0.39908131 0.63685199 0.43159206 H
atom_frac 0.31976286 0.75054360 0.46014507 H
atom_frac 0.26551289 0.71038558 0.18127517 O
atom_frac 0.29446502 0.64152977 0.14902355 H
atom_frac 0.30529489 0.70856126 0.25889520 H
atom_frac 0.59105671 0.66430746 0.58861931 O
atom_frac 0.58593565 0.65132064 0.50700957 H
atom_frac 0.63125702 0.74079290 0.59199912 H
atom_frac 0.21943797 0.24366784 0.21790971 O
atom_frac 0.16241111 0.22855728 0.16389993 H
atom_frac 0.21852424 0.32467060 0.24555931 H
atom_frac 0.46236376 0.29749172 0.41714156 O
atom_frac 0.45659098 0.22952934 0.36743053 H
atom_frac 0.51283466 0.28021911 0.48588156 H
atom_frac 0.51906007 0.65830324 0.85027563 O
atom_frac 0.59930470 0.66734249 0.82802164 H
atom_frac 0.52498364 0.63459805 0.93089937 H
atom_frac 0.91520581 0.91659335 0.14474117 O
atom_frac 0.95575078 0.94747275 0.07583337 H
atom_frac 0.83558557 0.89982901 0.11660593 H
atom_frac 0.88654686 0.66325898 0.93577467 O
atom_frac 0.88294108 0.67436673 0.01861580 H
atom_frac 0.95191815 0.63144021 0.89838045 H
atom_frac 0.64646688 0.41040562 0.97248904 O
atom_frac 0.65013860 0.45741340 0.90326345 H
atom_frac 0.57605971 0.36386228 0.96536425 H
atom_frac 0.82222775 0.11646642 0.78617401 O
atom_frac 0.74611937 0.09879560 0.80545121 H
atom_frac 0.84251777 0.07036394 0.71620036 H
atom_frac 0.51982453 0.22169363 0.98643217 O
atom_frac 0.54673331 0.17286002 0.92653816 H
atom_frac 0.57066427 0.20092883 0.05123295 H
atom_frac 0.28226255 0.39171625 0.57634233 O
atom_frac 0.30144675 0.46623508 0.61875949 H
atom_frac 0.33283861 0.38280375 0.51295141 H
atom_frac 0.30441481 0.90851471 0.51223052 O
atom_frac 0.27960153 0.91670894 0.59440687 H
atom_frac 0.25545717 0.95896174 0.46271685 H
atom_frac 0.72159792 0.81091043 0.84485406 O
atom_frac 0.77770987 0.75216522 0.85073129 H
atom_frac 0.73225550 0.84756926 0.77091979 H
atom_frac 0.66730445 0.48304582 0.72762761 O
atom_frac 0.74790982 0.45179658 0.72449942 H
atom_frac 0.66447285 0.55439701 0.68031317 H
atom_frac 0.86597199 0.67133862 0.66746736 O
atom_frac 0.91683143 0.62171050 0.71204710 H
atom_frac 0.82828922 0.61668117 0.61330350 H
atom_frac 0.28916405 0.49469659 0.03069404 O
atom_frac 0.34595531 0.47413709 0.08952381 H
atom_frac 0.21618649 0.46105093 0.05445525 H
atom_frac 0.66809060 0.11824477 0.14081400 O
atom_frac 0.74116611 0.09218354 0.10581187 H
atom_frac 0.65504168 0.07378504 0.21325466 H
atom_frac 0.14228945 0.33614929 0.82500872 O
atom_frac 0.22464310 0.35683988 0.81687335 H
atom_frac 0.12075675 0.33719505 0.90626179 H
atom_frac 0.52678151 0.81182918 0.32952019 O
atom_frac 0.51867489 0.75489825 0.26987349 H
atom_frac 0.45388493 0.80520057 0.37200668 H
atom_frac 0.24750058 0.68196802 0.88149347 O
atom_frac 0.27187347 0.75554338 0.91090324 H
atom_frac 0.26822443 0.62889403 0.94481248 H
atom_frac 0.68640727 0.86498847 0.08207477 O
atom_frac 0.61653854 0.90514887 0.09282670 H
atom_frac 0.68915361 0.86209573 0.99812819 H
atom_frac 0.84485415 0.83659591 0.39862833 O
atom_frac 0.93062777 0.83097892 0.40904730 H
atom_frac 0.82995625 0.91399859 0.36052612 H
atom_frac 0.75149836 0.26258891 0.46579530 O
atom_frac 0.77080517 0.34395662 0.49000666 H
atom_frac 0.70486123 0.27324477 0.39863283 H
atom_frac 0.86576745 0.36097807 0.72464606 O
atom_frac 0.85395925 0.28437223 0.75022888 H
atom_frac 0.92295388 0.35358929 0.66036892 H
atom_frac 0.99711590 0.88400224 0.67174678 O
atom_frac 0.97654086 0.94321757 0.61288208 H
atom_frac 0.93676146 0.82385095 0.66890461 H
atom_frac 0.40773761 0.12811061 0.24391374 O
atom_frac 0.44983473 0.07996564 0.18731201 H
atom_frac 0.35504963 0.18048558 0.20981254 H
atom_frac 0.31655993 0.18243300 0.67355250 O
atom_frac 0.25855740 0.19032244 0.61330385 H
atom_frac 0.34914597 0.25806956 0.66879958 H
atom_frac 0.59042634 0.27758289 0.62720137 O
atom_frac 0.66729539 0.26914350 0.58962179 H
atom_frac 0.59620070 0.34549595 0.68162266 H
atom_frac 0.76310258 0.60985726 0.27954443 O
atom_frac 0.82205552 0.60347640 0.22166063 H
atom_frac 0.77732373 0.68370157 0.31555722 H
atom_frac 0.70175586 0.88542010 0.58429301 O
atom_frac 0.63861930 0.93337337 0.55765461 H
atom_frac 0.75207078 0.86547144 0.51644833 H
atom_frac 0.53151098 0.67320884 0.13392417 O
atom_frac 0.57010332 0.59572854 0.12542169 H
atom_frac 0.57936916 0.72777190 0.09479080 H
atom_frac 0.07857263 0.84814673 0.44364884 O
atom_frac 0.12061328 0.79792940 0.49690414 H
atom_frac 0.12618904 0.85774539 0.38036627 H
atom_frac 0.21031572 0.15108655 0.46763976 O
atom_frac 0.12508118 0.15094771 0.47837028 H
atom_frac 0.21350201 0.20577914 0.40293641 H
