lattice_vector           73.83600000        -127.88760000           0.00000000
lattice_vector           73.83600000         127.88760000           0.00000000
lattice_vector            0.00000000           0.00000000          25.00000000

atom_frac            0.00555556           0.01111111           0.00000000 C 
atom_frac            0.01111111           0.00555556           0.00000000 C 
atom_frac            0.00555556           0.02777778           0.00000000 C 
atom_frac            0.01111111           0.02222222           0.00000000 C 
atom_frac            0.00555556           0.04444444           0.00000000 C 
atom_frac            0.01111111           0.03888889           0.00000000 C 
atom_frac            0.00555556           0.06111111           0.00000000 C 
atom_frac            0.01111111           0.05555556           0.00000000 C 
atom_frac            0.00555556           0.07777778           0.00000000 C 
atom_frac            0.01111111           0.07222222           0.00000000 C 
atom_frac            0.00555556           0.09444444           0.00000000 C 
atom_frac            0.01111111           0.08888889           0.00000000 C 
atom_frac            0.00555556           0.11111111           0.00000000 C 
atom_frac            0.01111111           0.10555556           0.00000000 C 
atom_frac            0.00555556           0.12777778           0.00000000 C 
atom_frac            0.01111111           0.12222222           0.00000000 C 
atom_frac            0.00555556           0.14444444           0.00000000 C 
atom_frac            0.01111111           0.13888889           0.00000000 C 
atom_frac            0.00555556           0.16111111           0.00000000 C 
atom_frac            0.01111111           0.15555556           0.00000000 C 
atom_frac            0.00555556           0.17777778           0.00000000 C 
atom_frac            0.01111111           0.17222222           0.00000000 C 
atom_frac            0.00555556           0.19444444           0.00000000 C 
atom_frac            0.01111111           0.18888889           0.00000000 C 
atom_frac            0.00555556           0.21111111           0.00000000 C 
atom_frac            0.01111111           0.20555556           0.00000000 C 
atom_frac            0.00555556           0.22777778           0.00000000 C 
atom_frac            0.01111111           0.22222222           0.00000000 C 
atom_frac            0.00555556           0.24444444           0.00000000 C 
atom_frac            0.01111111           0.23888889           0.00000000 C 
atom_frac            0.00555556           0.26111111           0.00000000 C 
atom_frac            0.01111111           0.25555556           0.00000000 C 
atom_frac            0.00555556           0.27777778           0.00000000 C 
atom_frac            0.01111111           0.27222222           0.00000000 C 
atom_frac            0.00555556           0.29444444           0.00000000 C 
atom_frac            0.01111111           0.28888889           0.00000000 C 
atom_frac            0.00555556           0.31111111           0.00000000 C 
atom_frac            0.01111111           0.30555556           0.00000000 C 
atom_frac            0.00555556           0.32777778           0.00000000 C 
atom_frac            0.01111111           0.32222222           0.00000000 C 
atom_frac            0.00555556           0.34444444           0.00000000 C 
atom_frac            0.01111111           0.33888889           0.00000000 C 
atom_frac            0.00555556           0.36111111           0.00000000 C 
atom_frac            0.01111111           0.35555556           0.00000000 C 
atom_frac            0.00555556           0.37777778           0.00000000 C 
atom_frac            0.01111111           0.37222222           0.00000000 C 
atom_frac            0.00555556           0.39444444           0.00000000 C 
atom_frac            0.01111111           0.38888889           0.00000000 C 
atom_frac            0.00555556           0.41111111           0.00000000 C 
atom_frac            0.01111111           0.40555556           0.00000000 C 
atom_frac            0.00555556           0.42777778           0.00000000 C 
atom_frac            0.01111111           0.42222222           0.00000000 C 
atom_frac            0.00555556           0.44444444           0.00000000 C 
atom_frac            0.01111111           0.43888889           0.00000000 C 
atom_frac            0.00555556           0.46111111           0.00000000 C 
atom_frac            0.01111111           0.45555556           0.00000000 C 
atom_frac            0.00555556           0.47777778           0.00000000 C 
atom_frac            0.01111111           0.47222222           0.00000000 C 
atom_frac            0.00555556           0.49444444           0.00000000 C 
atom_frac            0.01111111           0.48888889           0.00000000 C 
atom_frac            0.00555556           0.51111111           0.00000000 C 
atom_frac            0.01111111           0.50555556           0.00000000 C 
atom_frac            0.00555556           0.52777778           0.00000000 C 
atom_frac            0.01111111           0.52222222           0.00000000 C 
atom_frac            0.00555556           0.54444444           0.00000000 C 
atom_frac            0.01111111           0.53888889           0.00000000 C 
atom_frac            0.00555556           0.56111111           0.00000000 C 
atom_frac            0.01111111           0.55555556           0.00000000 C 
atom_frac            0.00555556           0.57777778           0.00000000 C 
atom_frac            0.01111111           0.57222222           0.00000000 C 
atom_frac            0.00555556           0.59444444           0.00000000 C 
atom_frac            0.01111111           0.58888889           0.00000000 C 
atom_frac            0.00555556           0.61111111           0.00000000 C 
atom_frac            0.01111111           0.60555556           0.00000000 C 
atom_frac            0.00555556           0.62777778           0.00000000 C 
atom_frac            0.01111111           0.62222222           0.00000000 C 
atom_frac            0.00555556           0.64444444           0.00000000 C 
atom_frac            0.01111111           0.63888889           0.00000000 C 
atom_frac            0.00555556           0.66111111           0.00000000 C 
atom_frac            0.01111111           0.65555556           0.00000000 C 
atom_frac            0.00555556           0.67777778           0.00000000 C 
atom_frac            0.01111111           0.67222222           0.00000000 C 
atom_frac            0.00555556           0.69444444           0.00000000 C 
atom_frac            0.01111111           0.68888889           0.00000000 C 
atom_frac            0.00555556           0.71111111           0.00000000 C 
atom_frac            0.01111111           0.70555556           0.00000000 C 
atom_frac            0.00555556           0.72777778           0.00000000 C 
atom_frac            0.01111111           0.72222222           0.00000000 C 
atom_frac            0.00555556           0.74444444           0.00000000 C 
atom_frac            0.01111111           0.73888889           0.00000000 C 
atom_frac            0.00555556           0.76111111           0.00000000 C 
atom_frac            0.01111111           0.75555556           0.00000000 C 
atom_frac            0.00555556           0.77777778           0.00000000 C 
atom_frac            0.01111111           0.77222222           0.00000000 C 
atom_frac            0.00555556           0.79444444           0.00000000 C 
atom_frac            0.01111111           0.78888889           0.00000000 C 
atom_frac            0.00555556           0.81111111           0.00000000 C 
atom_frac            0.01111111           0.80555556           0.00000000 C 
atom_frac            0.00555556           0.82777778           0.00000000 C 
atom_frac            0.01111111           0.82222222           0.00000000 C 
atom_frac            0.00555556           0.84444444           0.00000000 C 
atom_frac            0.01111111           0.83888889           0.00000000 C 
atom_frac            0.00555556           0.86111111           0.00000000 C 
atom_frac            0.01111111           0.85555556           0.00000000 C 
atom_frac            0.00555556           0.87777778           0.00000000 C 
atom_frac            0.01111111           0.87222222           0.00000000 C 
atom_frac            0.00555556           0.89444444           0.00000000 C 
atom_frac            0.01111111           0.88888889           0.00000000 C 
atom_frac            0.00555556           0.91111111           0.00000000 C 
atom_frac            0.01111111           0.90555556           0.00000000 C 
atom_frac            0.00555556           0.92777778           0.00000000 C 
atom_frac            0.01111111           0.92222222           0.00000000 C 
atom_frac            0.00555556           0.94444444           0.00000000 C 
atom_frac            0.01111111           0.93888889           0.00000000 C 
atom_frac            0.00555556           0.96111111           0.00000000 C 
atom_frac            0.01111111           0.95555556           0.00000000 C 
atom_frac            0.00555556           0.97777778           0.00000000 C 
atom_frac            0.01111111           0.97222222           0.00000000 C 
atom_frac            0.00555556           0.99444444           0.00000000 C 
atom_frac            0.01111111           0.98888889           0.00000000 C 
atom_frac            0.02222222           0.01111111           0.00000000 C 
atom_frac            0.02777778           0.00555556           0.00000000 C 
atom_frac            0.02222222           0.02777778           0.00000000 C 
atom_frac            0.02777778           0.02222222           0.00000000 C 
atom_frac            0.02222222           0.04444444           0.00000000 C 
atom_frac            0.02777778           0.03888889           0.00000000 C 
atom_frac            0.02222222           0.06111111           0.00000000 C 
atom_frac            0.02777778           0.05555556           0.00000000 C 
atom_frac            0.02222222           0.07777778           0.00000000 C 
atom_frac            0.02777778           0.07222222           0.00000000 C 
atom_frac            0.02222222           0.09444444           0.00000000 C 
atom_frac            0.02777778           0.08888889           0.00000000 C 
atom_frac            0.02222222           0.11111111           0.00000000 C 
atom_frac            0.02777778           0.10555556           0.00000000 C 
atom_frac            0.02222222           0.12777778           0.00000000 C 
atom_frac            0.02777778           0.12222222           0.00000000 C 
atom_frac            0.02222222           0.14444444           0.00000000 C 
atom_frac            0.02777778           0.13888889           0.00000000 C 
atom_frac            0.02222222           0.16111111           0.00000000 C 
atom_frac            0.02777778           0.15555556           0.00000000 C 
atom_frac            0.02222222           0.17777778           0.00000000 C 
atom_frac            0.02777778           0.17222222           0.00000000 C 
atom_frac            0.02222222           0.19444444           0.00000000 C 
atom_frac            0.02777778           0.18888889           0.00000000 C 
atom_frac            0.02222222           0.21111111           0.00000000 C 
atom_frac            0.02777778           0.20555556           0.00000000 C 
atom_frac            0.02222222           0.22777778           0.00000000 C 
atom_frac            0.02777778           0.22222222           0.00000000 C 
atom_frac            0.02222222           0.24444444           0.00000000 C 
atom_frac            0.02777778           0.23888889           0.00000000 C 
atom_frac            0.02222222           0.26111111           0.00000000 C 
atom_frac            0.02777778           0.25555556           0.00000000 C 
atom_frac            0.02222222           0.27777778           0.00000000 C 
atom_frac            0.02777778           0.27222222           0.00000000 C 
atom_frac            0.02222222           0.29444444           0.00000000 C 
atom_frac            0.02777778           0.28888889           0.00000000 C 
atom_frac            0.02222222           0.31111111           0.00000000 C 
atom_frac            0.02777778           0.30555556           0.00000000 C 
atom_frac            0.02222222           0.32777778           0.00000000 C 
atom_frac            0.02777778           0.32222222           0.00000000 C 
atom_frac            0.02222222           0.34444444           0.00000000 C 
atom_frac            0.02777778           0.33888889           0.00000000 C 
atom_frac            0.02222222           0.36111111           0.00000000 C 
atom_frac            0.02777778           0.35555556           0.00000000 C 
atom_frac            0.02222222           0.37777778           0.00000000 C 
atom_frac            0.02777778           0.37222222           0.00000000 C 
atom_frac            0.02222222           0.39444444           0.00000000 C 
atom_frac            0.02777778           0.38888889           0.00000000 C 
atom_frac            0.02222222           0.41111111           0.00000000 C 
atom_frac            0.02777778           0.40555556           0.00000000 C 
atom_frac            0.02222222           0.42777778           0.00000000 C 
atom_frac            0.02777778           0.42222222           0.00000000 C 
atom_frac            0.02222222           0.44444444           0.00000000 C 
atom_frac            0.02777778           0.43888889           0.00000000 C 
atom_frac            0.02222222           0.46111111           0.00000000 C 
atom_frac            0.02777778           0.45555556           0.00000000 C 
atom_frac            0.02222222           0.47777778           0.00000000 C 
atom_frac            0.02777778           0.47222222           0.00000000 C 
atom_frac            0.02222222           0.49444444           0.00000000 C 
atom_frac            0.02777778           0.48888889           0.00000000 C 
atom_frac            0.02222222           0.51111111           0.00000000 C 
atom_frac            0.02777778           0.50555556           0.00000000 C 
atom_frac            0.02222222           0.52777778           0.00000000 C 
atom_frac            0.02777778           0.52222222           0.00000000 C 
atom_frac            0.02222222           0.54444444           0.00000000 C 
atom_frac            0.02777778           0.53888889           0.00000000 C 
atom_frac            0.02222222           0.56111111           0.00000000 C 
atom_frac            0.02777778           0.55555556           0.00000000 C 
atom_frac            0.02222222           0.57777778           0.00000000 C 
atom_frac            0.02777778           0.57222222           0.00000000 C 
atom_frac            0.02222222           0.59444444           0.00000000 C 
atom_frac            0.02777778           0.58888889           0.00000000 C 
atom_frac            0.02222222           0.61111111           0.00000000 C 
atom_frac            0.02777778           0.60555556           0.00000000 C 
atom_frac            0.02222222           0.62777778           0.00000000 C 
atom_frac            0.02777778           0.62222222           0.00000000 C 
atom_frac            0.02222222           0.64444444           0.00000000 C 
atom_frac            0.02777778           0.63888889           0.00000000 C 
atom_frac            0.02222222           0.66111111           0.00000000 C 
atom_frac            0.02777778           0.65555556           0.00000000 C 
atom_frac            0.02222222           0.67777778           0.00000000 C 
atom_frac            0.02777778           0.67222222           0.00000000 C 
atom_frac            0.02222222           0.69444444           0.00000000 C 
atom_frac            0.02777778           0.68888889           0.00000000 C 
atom_frac            0.02222222           0.71111111           0.00000000 C 
atom_frac            0.02777778           0.70555556           0.00000000 C 
atom_frac            0.02222222           0.72777778           0.00000000 C 
atom_frac            0.02777778           0.72222222           0.00000000 C 
atom_frac            0.02222222           0.74444444           0.00000000 C 
atom_frac            0.02777778           0.73888889           0.00000000 C 
atom_frac            0.02222222           0.76111111           0.00000000 C 
atom_frac            0.02777778           0.75555556           0.00000000 C 
atom_frac            0.02222222           0.77777778           0.00000000 C 
atom_frac            0.02777778           0.77222222           0.00000000 C 
atom_frac            0.02222222           0.79444444           0.00000000 C 
atom_frac            0.02777778           0.78888889           0.00000000 C 
atom_frac            0.02222222           0.81111111           0.00000000 C 
atom_frac            0.02777778           0.80555556           0.00000000 C 
atom_frac            0.02222222           0.82777778           0.00000000 C 
atom_frac            0.02777778           0.82222222           0.00000000 C 
atom_frac            0.02222222           0.84444444           0.00000000 C 
atom_frac            0.02777778           0.83888889           0.00000000 C 
atom_frac            0.02222222           0.86111111           0.00000000 C 
atom_frac            0.02777778           0.85555556           0.00000000 C 
atom_frac            0.02222222           0.87777778           0.00000000 C 
atom_frac            0.02777778           0.87222222           0.00000000 C 
atom_frac            0.02222222           0.89444444           0.00000000 C 
atom_frac            0.02777778           0.88888889           0.00000000 C 
atom_frac            0.02222222           0.91111111           0.00000000 C 
atom_frac            0.02777778           0.90555556           0.00000000 C 
atom_frac            0.02222222           0.92777778           0.00000000 C 
atom_frac            0.02777778           0.92222222           0.00000000 C 
atom_frac            0.02222222           0.94444444           0.00000000 C 
atom_frac            0.02777778           0.93888889           0.00000000 C 
atom_frac            0.02222222           0.96111111           0.00000000 C 
atom_frac            0.02777778           0.95555556           0.00000000 C 
atom_frac            0.02222222           0.97777778           0.00000000 C 
atom_frac            0.02777778           0.97222222           0.00000000 C 
atom_frac            0.02222222           0.99444444           0.00000000 C 
atom_frac            0.02777778           0.98888889           0.00000000 C 
atom_frac            0.03888889           0.01111111           0.00000000 C 
atom_frac            0.04444444           0.00555556           0.00000000 C 
atom_frac            0.03888889           0.02777778           0.00000000 C 
atom_frac            0.04444444           0.02222222           0.00000000 C 
atom_frac            0.03888889           0.04444444           0.00000000 C 
atom_frac            0.04444444           0.03888889           0.00000000 C 
atom_frac            0.03888889           0.06111111           0.00000000 C 
atom_frac            0.04444444           0.05555556           0.00000000 C 
atom_frac            0.03888889           0.07777778           0.00000000 C 
atom_frac            0.04444444           0.07222222           0.00000000 C 
atom_frac            0.03888889           0.09444444           0.00000000 C 
atom_frac            0.04444444           0.08888889           0.00000000 C 
atom_frac            0.03888889           0.11111111           0.00000000 C 
atom_frac            0.04444444           0.10555556           0.00000000 C 
atom_frac            0.03888889           0.12777778           0.00000000 C 
atom_frac            0.04444444           0.12222222           0.00000000 C 
atom_frac            0.03888889           0.14444444           0.00000000 C 
atom_frac            0.04444444           0.13888889           0.00000000 C 
atom_frac            0.03888889           0.16111111           0.00000000 C 
atom_frac            0.04444444           0.15555556           0.00000000 C 
atom_frac            0.03888889           0.17777778           0.00000000 C 
atom_frac            0.04444444           0.17222222           0.00000000 C 
atom_frac            0.03888889           0.19444444           0.00000000 C 
atom_frac            0.04444444           0.18888889           0.00000000 C 
atom_frac            0.03888889           0.21111111           0.00000000 C 
atom_frac            0.04444444           0.20555556           0.00000000 C 
atom_frac            0.03888889           0.22777778           0.00000000 C 
atom_frac            0.04444444           0.22222222           0.00000000 C 
atom_frac            0.03888889           0.24444444           0.00000000 C 
atom_frac            0.04444444           0.23888889           0.00000000 C 
atom_frac            0.03888889           0.26111111           0.00000000 C 
atom_frac            0.04444444           0.25555556           0.00000000 C 
atom_frac            0.03888889           0.27777778           0.00000000 C 
atom_frac            0.04444444           0.27222222           0.00000000 C 
atom_frac            0.03888889           0.29444444           0.00000000 C 
atom_frac            0.04444444           0.28888889           0.00000000 C 
atom_frac            0.03888889           0.31111111           0.00000000 C 
atom_frac            0.04444444           0.30555556           0.00000000 C 
atom_frac            0.03888889           0.32777778           0.00000000 C 
atom_frac            0.04444444           0.32222222           0.00000000 C 
atom_frac            0.03888889           0.34444444           0.00000000 C 
atom_frac            0.04444444           0.33888889           0.00000000 C 
atom_frac            0.03888889           0.36111111           0.00000000 C 
atom_frac            0.04444444           0.35555556           0.00000000 C 
atom_frac            0.03888889           0.37777778           0.00000000 C 
atom_frac            0.04444444           0.37222222           0.00000000 C 
atom_frac            0.03888889           0.39444444           0.00000000 C 
atom_frac            0.04444444           0.38888889           0.00000000 C 
atom_frac            0.03888889           0.41111111           0.00000000 C 
atom_frac            0.04444444           0.40555556           0.00000000 C 
atom_frac            0.03888889           0.42777778           0.00000000 C 
atom_frac            0.04444444           0.42222222           0.00000000 C 
atom_frac            0.03888889           0.44444444           0.00000000 C 
atom_frac            0.04444444           0.43888889           0.00000000 C 
atom_frac            0.03888889           0.46111111           0.00000000 C 
atom_frac            0.04444444           0.45555556           0.00000000 C 
atom_frac            0.03888889           0.47777778           0.00000000 C 
atom_frac            0.04444444           0.47222222           0.00000000 C 
atom_frac            0.03888889           0.49444444           0.00000000 C 
atom_frac            0.04444444           0.48888889           0.00000000 C 
atom_frac            0.03888889           0.51111111           0.00000000 C 
atom_frac            0.04444444           0.50555556           0.00000000 C 
atom_frac            0.03888889           0.52777778           0.00000000 C 
atom_frac            0.04444444           0.52222222           0.00000000 C 
atom_frac            0.03888889           0.54444444           0.00000000 C 
atom_frac            0.04444444           0.53888889           0.00000000 C 
atom_frac            0.03888889           0.56111111           0.00000000 C 
atom_frac            0.04444444           0.55555556           0.00000000 C 
atom_frac            0.03888889           0.57777778           0.00000000 C 
atom_frac            0.04444444           0.57222222           0.00000000 C 
atom_frac            0.03888889           0.59444444           0.00000000 C 
atom_frac            0.04444444           0.58888889           0.00000000 C 
atom_frac            0.03888889           0.61111111           0.00000000 C 
atom_frac            0.04444444           0.60555556           0.00000000 C 
atom_frac            0.03888889           0.62777778           0.00000000 C 
atom_frac            0.04444444           0.62222222           0.00000000 C 
atom_frac            0.03888889           0.64444444           0.00000000 C 
atom_frac            0.04444444           0.63888889           0.00000000 C 
atom_frac            0.03888889           0.66111111           0.00000000 C 
atom_frac            0.04444444           0.65555556           0.00000000 C 
atom_frac            0.03888889           0.67777778           0.00000000 C 
atom_frac            0.04444444           0.67222222           0.00000000 C 
atom_frac            0.03888889           0.69444444           0.00000000 C 
atom_frac            0.04444444           0.68888889           0.00000000 C 
atom_frac            0.03888889           0.71111111           0.00000000 C 
atom_frac            0.04444444           0.70555556           0.00000000 C 
atom_frac            0.03888889           0.72777778           0.00000000 C 
atom_frac            0.04444444           0.72222222           0.00000000 C 
atom_frac            0.03888889           0.74444444           0.00000000 C 
atom_frac            0.04444444           0.73888889           0.00000000 C 
atom_frac            0.03888889           0.76111111           0.00000000 C 
atom_frac            0.04444444           0.75555556           0.00000000 C 
atom_frac            0.03888889           0.77777778           0.00000000 C 
atom_frac            0.04444444           0.77222222           0.00000000 C 
atom_frac            0.03888889           0.79444444           0.00000000 C 
atom_frac            0.04444444           0.78888889           0.00000000 C 
atom_frac            0.03888889           0.81111111           0.00000000 C 
atom_frac            0.04444444           0.80555556           0.00000000 C 
atom_frac            0.03888889           0.82777778           0.00000000 C 
atom_frac            0.04444444           0.82222222           0.00000000 C 
atom_frac            0.03888889           0.84444444           0.00000000 C 
atom_frac            0.04444444           0.83888889           0.00000000 C 
atom_frac            0.03888889           0.86111111           0.00000000 C 
atom_frac            0.04444444           0.85555556           0.00000000 C 
atom_frac            0.03888889           0.87777778           0.00000000 C 
atom_frac            0.04444444           0.87222222           0.00000000 C 
atom_frac            0.03888889           0.89444444           0.00000000 C 
atom_frac            0.04444444           0.88888889           0.00000000 C 
atom_frac            0.03888889           0.91111111           0.00000000 C 
atom_frac            0.04444444           0.90555556           0.00000000 C 
atom_frac            0.03888889           0.92777778           0.00000000 C 
atom_frac            0.04444444           0.92222222           0.00000000 C 
atom_frac            0.03888889           0.94444444           0.00000000 C 
atom_frac            0.04444444           0.93888889           0.00000000 C 
atom_frac            0.03888889           0.96111111           0.00000000 C 
atom_frac            0.04444444           0.95555556           0.00000000 C 
atom_frac            0.03888889           0.97777778           0.00000000 C 
atom_frac            0.04444444           0.97222222           0.00000000 C 
atom_frac            0.03888889           0.99444444           0.00000000 C 
atom_frac            0.04444444           0.98888889           0.00000000 C 
atom_frac            0.05555556           0.01111111           0.00000000 C 
atom_frac            0.06111111           0.00555556           0.00000000 C 
atom_frac            0.05555556           0.02777778           0.00000000 C 
atom_frac            0.06111111           0.02222222           0.00000000 C 
atom_frac            0.05555556           0.04444444           0.00000000 C 
atom_frac            0.06111111           0.03888889           0.00000000 C 
atom_frac            0.05555556           0.06111111           0.00000000 C 
atom_frac            0.06111111           0.05555556           0.00000000 C 
atom_frac            0.05555556           0.07777778           0.00000000 C 
atom_frac            0.06111111           0.07222222           0.00000000 C 
atom_frac            0.05555556           0.09444444           0.00000000 C 
atom_frac            0.06111111           0.08888889           0.00000000 C 
atom_frac            0.05555556           0.11111111           0.00000000 C 
atom_frac            0.06111111           0.10555556           0.00000000 C 
atom_frac            0.05555556           0.12777778           0.00000000 C 
atom_frac            0.06111111           0.12222222           0.00000000 C 
atom_frac            0.05555556           0.14444444           0.00000000 C 
atom_frac            0.06111111           0.13888889           0.00000000 C 
atom_frac            0.05555556           0.16111111           0.00000000 C 
atom_frac            0.06111111           0.15555556           0.00000000 C 
atom_frac            0.05555556           0.17777778           0.00000000 C 
atom_frac            0.06111111           0.17222222           0.00000000 C 
atom_frac            0.05555556           0.19444444           0.00000000 C 
atom_frac            0.06111111           0.18888889           0.00000000 C 
atom_frac            0.05555556           0.21111111           0.00000000 C 
atom_frac            0.06111111           0.20555556           0.00000000 C 