lattice_vector    1.2306 -2.13146        0
lattice_vector    1.2306  2.13146        0
lattice_vector         0        0       25

atom_frac        0        0        0 C
atom_frac 0.333333 0.666667        0 C