lattice_vector  1.58020000 -2.73699000 0.00000000
lattice_vector  1.58020000 2.73699000 0.00000000
lattice_vector  0.00000000 0.00000000 30.00000000

atom_frac 0.33333300 0.66666700 0.10266667 Mo
atom_frac 0.66666700 0.33333300 0.04969067 S
atom_frac 0.66666700 0.33333300 0.15564267 S
