lattice_vector           25.00000000           0.00000000           0.00000000
lattice_vector          -12.50000000          21.65000000           0.00000000
lattice_vector            0.00000000           0.00000000         340.80000000

atom_frac            0.08232610           0.00000000           0.12498487 C 
atom_frac            0.09454650           0.05592450           0.00209665 C 
atom_frac            0.09454660           0.05592450           0.00623669 C 
atom_frac            0.08232610           0.00000002           0.00834842 C 
atom_frac            0.07072190           0.09049270           0.12498537 C 
atom_frac            0.01977080           0.09049270           0.00209801 C 
atom_frac            0.01977080           0.09049260           0.00623532 C 
atom_frac            0.07072190           0.09049270           0.00834801 C 
atom_frac            0.96137800           0.05592450           0.12498663 C 
atom_frac            0.91767400           0.00000003           0.00209843 C 
atom_frac            0.91767400           0.00000001           0.00623490 C 
atom_frac            0.96137800           0.05592450           0.00834665 C 
atom_frac            0.90545300           0.94407500           0.12498663 C 
atom_frac            0.92927800           0.90950700           0.00209801 C 
atom_frac            0.92927800           0.90950700           0.00623532 C 
atom_frac            0.90545300           0.94407500           0.00834665 C 
atom_frac            0.98022900           0.90950700           0.12498537 C 
atom_frac            0.03862200           0.94407500           0.00209665 C 
atom_frac            0.03862200           0.94407500           0.00623669 C 
atom_frac            0.98022900           0.90950700           0.00834801 C 
atom_frac            0.08232610           0.00000000           0.01248490 C 
atom_frac            0.09454650           0.05592450           0.01459663 C 
atom_frac            0.09454660           0.05592450           0.01873675 C 
atom_frac            0.08232610           0.00000002           0.02084837 C 
atom_frac            0.07072190           0.09049270           0.01248533 C 
atom_frac            0.01977080           0.09049270           0.01459800 C 
atom_frac            0.01977080           0.09049260           0.01873537 C 
atom_frac            0.07072190           0.09049270           0.02084800 C 
atom_frac            0.96137800           0.05592450           0.01248669 C 
atom_frac            0.91767400           0.00000003           0.01459838 C 
atom_frac            0.91767400           0.00000001           0.01873488 C 
atom_frac            0.96137800           0.05592450           0.02084663 C 
atom_frac            0.90545300           0.94407500           0.01248669 C 
atom_frac            0.92927800           0.90950700           0.01459800 C 
atom_frac            0.92927800           0.90950700           0.01873537 C 
atom_frac            0.90545300           0.94407500           0.02084663 C 
atom_frac            0.98022900           0.90950700           0.01248533 C 
atom_frac            0.03862200           0.94407500           0.01459663 C 
atom_frac            0.03862200           0.94407500           0.01873675 C 
atom_frac            0.98022900           0.90950700           0.02084800 C 
atom_frac            0.08232610           0.00000000           0.02498488 C 
atom_frac            0.09454650           0.05592450           0.02709662 C 
atom_frac            0.09454660           0.05592450           0.03123675 C 
atom_frac            0.08232610           0.00000002           0.03334837 C 
atom_frac            0.07072190           0.09049270           0.02498538 C 
atom_frac            0.01977080           0.09049270           0.02709800 C 
atom_frac            0.01977080           0.09049260           0.03123537 C 
atom_frac            0.07072190           0.09049270           0.03334800 C 
atom_frac            0.96137800           0.05592450           0.02498662 C 
atom_frac            0.91767400           0.00000003           0.02709838 C 
atom_frac            0.91767400           0.00000001           0.03123487 C 
atom_frac            0.96137800           0.05592450           0.03334662 C 
atom_frac            0.90545300           0.94407500           0.02498662 C 
atom_frac            0.92927800           0.90950700           0.02709800 C 
atom_frac            0.92927800           0.90950700           0.03123537 C 
atom_frac            0.90545300           0.94407500           0.03334662 C 
atom_frac            0.98022900           0.90950700           0.02498538 C 
atom_frac            0.03862200           0.94407500           0.02709662 C 
atom_frac            0.03862200           0.94407500           0.03123675 C 
atom_frac            0.98022900           0.90950700           0.03334800 C 
atom_frac            0.08232610           0.00000000           0.03748488 C 
atom_frac            0.09454650           0.05592450           0.03959663 C 
atom_frac            0.09454660           0.05592450           0.04373675 C 
atom_frac            0.08232610           0.00000002           0.04584837 C 
atom_frac            0.07072190           0.09049270           0.03748538 C 
atom_frac            0.01977080           0.09049270           0.03959800 C 
atom_frac            0.01977080           0.09049260           0.04373537 C 
atom_frac            0.07072190           0.09049270           0.04584800 C 
atom_frac            0.96137800           0.05592450           0.03748663 C 
atom_frac            0.91767400           0.00000003           0.03959837 C 
atom_frac            0.91767400           0.00000001           0.04373487 C 
atom_frac            0.96137800           0.05592450           0.04584663 C 
atom_frac            0.90545300           0.94407500           0.03748663 C 
atom_frac            0.92927800           0.90950700           0.03959800 C 
atom_frac            0.92927800           0.90950700           0.04373537 C 
atom_frac            0.90545300           0.94407500           0.04584663 C 
atom_frac            0.98022900           0.90950700           0.03748538 C 
atom_frac            0.03862200           0.94407500           0.03959663 C 
atom_frac            0.03862200           0.94407500           0.04373675 C 
atom_frac            0.98022900           0.90950700           0.04584800 C 
atom_frac            0.08232610           0.00000000           0.04998487 C 
atom_frac            0.09454650           0.05592450           0.05209663 C 
atom_frac            0.09454660           0.05592450           0.05623675 C 
atom_frac            0.08232610           0.00000002           0.05834838 C 
atom_frac            0.07072190           0.09049270           0.04998537 C 
atom_frac            0.01977080           0.09049270           0.05209800 C 
atom_frac            0.01977080           0.09049260           0.05623537 C 
atom_frac            0.07072190           0.09049270           0.05834800 C 
atom_frac            0.96137800           0.05592450           0.04998662 C 
atom_frac            0.91767400           0.00000003           0.05209838 C 
atom_frac            0.91767400           0.00000001           0.05623487 C 
atom_frac            0.96137800           0.05592450           0.05834662 C 
atom_frac            0.90545300           0.94407500           0.04998662 C 
atom_frac            0.92927800           0.90950700           0.05209800 C 
atom_frac            0.92927800           0.90950700           0.05623537 C 
atom_frac            0.90545300           0.94407500           0.05834662 C 
atom_frac            0.98022900           0.90950700           0.04998537 C 
atom_frac            0.03862200           0.94407500           0.05209663 C 
atom_frac            0.03862200           0.94407500           0.05623675 C 
atom_frac            0.98022900           0.90950700           0.05834800 C 
atom_frac            0.08232610           0.00000000           0.06248488 C 
atom_frac            0.09454650           0.05592450           0.06459663 C 
atom_frac            0.09454660           0.05592450           0.06873675 C 
atom_frac            0.08232610           0.00000002           0.07084838 C 
atom_frac            0.07072190           0.09049270           0.06248538 C 
atom_frac            0.01977080           0.09049270           0.06459800 C 
atom_frac            0.01977080           0.09049260           0.06873538 C 
atom_frac            0.07072190           0.09049270           0.07084800 C 
atom_frac            0.96137800           0.05592450           0.06248662 C 
atom_frac            0.91767400           0.00000003           0.06459837 C 
atom_frac            0.91767400           0.00000001           0.06873488 C 
atom_frac            0.96137800           0.05592450           0.07084662 C 
atom_frac            0.90545300           0.94407500           0.06248662 C 
atom_frac            0.92927800           0.90950700           0.06459800 C 
atom_frac            0.92927800           0.90950700           0.06873538 C 
atom_frac            0.90545300           0.94407500           0.07084662 C 
atom_frac            0.98022900           0.90950700           0.06248538 C 
atom_frac            0.03862200           0.94407500           0.06459663 C 
atom_frac            0.03862200           0.94407500           0.06873675 C 
atom_frac            0.98022900           0.90950700           0.07084800 C 
atom_frac            0.08232610           0.00000000           0.07498488 C 
atom_frac            0.09454650           0.05592450           0.07709663 C 
atom_frac            0.09454660           0.05592450           0.08123675 C 
atom_frac            0.08232610           0.00000002           0.08334838 C 
atom_frac            0.07072190           0.09049270           0.07498538 C 
atom_frac            0.01977080           0.09049270           0.07709800 C 
atom_frac            0.01977080           0.09049260           0.08123537 C 
atom_frac            0.07072190           0.09049270           0.08334800 C 
atom_frac            0.96137800           0.05592450           0.07498663 C 
atom_frac            0.91767400           0.00000003           0.07709837 C 
atom_frac            0.91767400           0.00000001           0.08123487 C 
atom_frac            0.96137800           0.05592450           0.08334662 C 
atom_frac            0.90545300           0.94407500           0.07498663 C 
atom_frac            0.92927800           0.90950700           0.07709800 C 
atom_frac            0.92927800           0.90950700           0.08123537 C 
atom_frac            0.90545300           0.94407500           0.08334662 C 
atom_frac            0.98022900           0.90950700           0.07498538 C 
atom_frac            0.03862200           0.94407500           0.07709663 C 
atom_frac            0.03862200           0.94407500           0.08123675 C 
atom_frac            0.98022900           0.90950700           0.08334800 C 
atom_frac            0.08232610           0.00000000           0.08748488 C 
atom_frac            0.09454650           0.05592450           0.08959662 C 
atom_frac            0.09454660           0.05592450           0.09373675 C 
atom_frac            0.08232610           0.00000002           0.09584837 C 
atom_frac            0.07072190           0.09049270           0.08748538 C 
atom_frac            0.01977080           0.09049270           0.08959800 C 
atom_frac            0.01977080           0.09049260           0.09373537 C 
atom_frac            0.07072190           0.09049270           0.09584800 C 
atom_frac            0.96137800           0.05592450           0.08748662 C 
atom_frac            0.91767400           0.00000003           0.08959837 C 
atom_frac            0.91767400           0.00000001           0.09373487 C 
atom_frac            0.96137800           0.05592450           0.09584663 C 
atom_frac            0.90545300           0.94407500           0.08748662 C 
atom_frac            0.92927800           0.90950700           0.08959800 C 
atom_frac            0.92927800           0.90950700           0.09373537 C 
atom_frac            0.90545300           0.94407500           0.09584663 C 
atom_frac            0.98022900           0.90950700           0.08748538 C 
atom_frac            0.03862200           0.94407500           0.08959662 C 
atom_frac            0.03862200           0.94407500           0.09373675 C 
atom_frac            0.98022900           0.90950700           0.09584800 C 
atom_frac            0.08232610           0.00000000           0.09998488 C 
atom_frac            0.09454650           0.05592450           0.10209662 C 
atom_frac            0.09454660           0.05592450           0.10623663 C 
atom_frac            0.08232610           0.00000002           0.10834837 C 
atom_frac            0.07072190           0.09049270           0.09998538 C 
atom_frac            0.01977080           0.09049270           0.10209800 C 
atom_frac            0.01977080           0.09049260           0.10623538 C 
atom_frac            0.07072190           0.09049270           0.10834800 C 
atom_frac            0.96137800           0.05592450           0.09998662 C 
atom_frac            0.91767400           0.00000003           0.10209838 C 
atom_frac            0.91767400           0.00000001           0.10623488 C 
atom_frac            0.96137800           0.05592450           0.10834663 C 
atom_frac            0.90545300           0.94407500           0.09998662 C 
atom_frac            0.92927800           0.90950700           0.10209800 C 
atom_frac            0.92927800           0.90950700           0.10623538 C 
atom_frac            0.90545300           0.94407500           0.10834663 C 
atom_frac            0.98022900           0.90950700           0.09998538 C 
atom_frac            0.03862200           0.94407500           0.10209662 C 
atom_frac            0.03862200           0.94407500           0.10623663 C 
atom_frac            0.98022900           0.90950700           0.10834800 C 
atom_frac            0.08232610           0.00000000           0.11248487 C 
atom_frac            0.09454650           0.05592450           0.11459662 C 
atom_frac            0.09454660           0.05592450           0.11873662 C 
atom_frac            0.08232610           0.00000002           0.12084837 C 
atom_frac            0.07072190           0.09049270           0.11248537 C 
atom_frac            0.01977080           0.09049270           0.11459800 C 
atom_frac            0.01977080           0.09049260           0.11873538 C 
atom_frac            0.07072190           0.09049270           0.12084800 C 
atom_frac            0.96137800           0.05592450           0.11248663 C 
atom_frac            0.91767400           0.00000003           0.11459838 C 
atom_frac            0.91767400           0.00000001           0.11873488 C 
atom_frac            0.96137800           0.05592450           0.12084662 C 
atom_frac            0.90545300           0.94407500           0.11248663 C 
atom_frac            0.92927800           0.90950700           0.11459800 C 
atom_frac            0.92927800           0.90950700           0.11873538 C 
atom_frac            0.90545300           0.94407500           0.12084662 C 
atom_frac            0.98022900           0.90950700           0.11248537 C 
atom_frac            0.03862200           0.94407500           0.11459662 C 
atom_frac            0.03862200           0.94407500           0.11873662 C 
atom_frac            0.98022900           0.90950700           0.12084800 C 
atom_frac            0.08232610           0.00000000           0.24998487 C 
atom_frac            0.09454650           0.05592450           0.12709665 C 
atom_frac            0.09454660           0.05592450           0.13123669 C 
atom_frac            0.08232610           0.00000002           0.13334842 C 
atom_frac            0.07072190           0.09049270           0.24998538 C 
atom_frac            0.01977080           0.09049270           0.12709801 C 
atom_frac            0.01977080           0.09049260           0.13123533 C 
atom_frac            0.07072190           0.09049270           0.13334801 C 
atom_frac            0.96137800           0.05592450           0.24998662 C 
atom_frac            0.91767400           0.00000003           0.12709842 C 
atom_frac            0.91767400           0.00000001           0.13123490 C 
atom_frac            0.96137800           0.05592450           0.13334665 C 
atom_frac            0.90545300           0.94407500           0.24998662 C 
atom_frac            0.92927800           0.90950700           0.12709801 C 
atom_frac            0.92927800           0.90950700           0.13123533 C 
atom_frac            0.90545300           0.94407500           0.13334665 C 
atom_frac            0.98022900           0.90950700           0.24998538 C 
atom_frac            0.03862200           0.94407500           0.12709665 C 
atom_frac            0.03862200           0.94407500           0.13123669 C 
atom_frac            0.98022900           0.90950700           0.13334801 C 
atom_frac            0.08232610           0.00000000           0.13748490 C 
atom_frac            0.09454650           0.05592450           0.13959663 C 
atom_frac            0.09454660           0.05592450           0.14373675 C 
atom_frac            0.08232610           0.00000002           0.14584838 C 
atom_frac            0.07072190           0.09049270           0.13748532 C 
atom_frac            0.01977080           0.09049270           0.13959800 C 
atom_frac            0.01977080           0.09049260           0.14373537 C 
atom_frac            0.07072190           0.09049270           0.14584800 C 
atom_frac            0.96137800           0.05592450           0.13748669 C 
atom_frac            0.91767400           0.00000003           0.13959837 C 
atom_frac            0.91767400           0.00000001           0.14373488 C 
atom_frac            0.96137800           0.05592450           0.14584663 C 
atom_frac            0.90545300           0.94407500           0.13748669 C 
atom_frac            0.92927800           0.90950700           0.13959800 C 
atom_frac            0.92927800           0.90950700           0.14373537 C 
atom_frac            0.90545300           0.94407500           0.14584663 C 
atom_frac            0.98022900           0.90950700           0.13748532 C 
atom_frac            0.03862200           0.94407500           0.13959663 C 
atom_frac            0.03862200           0.94407500           0.14373675 C 
atom_frac            0.98022900           0.90950700           0.14584800 C 
atom_frac            0.08232610           0.00000000           0.14998487 C 
atom_frac            0.09454650           0.05592450           0.15209663 C 
atom_frac            0.09454660           0.05592450           0.15623675 C 
atom_frac            0.08232610           0.00000002           0.15834838 C 
atom_frac            0.07072190           0.09049270           0.14998538 C 
atom_frac            0.01977080           0.09049270           0.15209800 C 
atom_frac            0.01977080           0.09049260           0.15623538 C 
atom_frac            0.07072190           0.09049270           0.15834800 C 
atom_frac            0.96137800           0.05592450           0.14998663 C 
atom_frac            0.91767400           0.00000003           0.15209838 C 
atom_frac            0.91767400           0.00000001           0.15623487 C 
atom_frac            0.96137800           0.05592450           0.15834662 C 
atom_frac            0.90545300           0.94407500           0.14998663 C 
atom_frac            0.92927800           0.90950700           0.15209800 C 
atom_frac            0.92927800           0.90950700           0.15623538 C 
atom_frac            0.90545300           0.94407500           0.15834662 C 
atom_frac            0.98022900           0.90950700           0.14998538 C 
atom_frac            0.03862200           0.94407500           0.15209663 C 
atom_frac            0.03862200           0.94407500           0.15623675 C 
atom_frac            0.98022900           0.90950700           0.15834800 C 
atom_frac            0.08232610           0.00000000           0.16248488 C 
atom_frac            0.09454650           0.05592450           0.16459662 C 
atom_frac            0.09454660           0.05592450           0.16873675 C 
atom_frac            0.08232610           0.00000002           0.17084837 C 
atom_frac            0.07072190           0.09049270           0.16248537 C 
atom_frac            0.01977080           0.09049270           0.16459800 C 
atom_frac            0.01977080           0.09049260           0.16873537 C 
atom_frac            0.07072190           0.09049270           0.17084800 C 
atom_frac            0.96137800           0.05592450           0.16248662 C 
atom_frac            0.91767400           0.00000003           0.16459837 C 
atom_frac            0.91767400           0.00000001           0.16873488 C 
atom_frac            0.96137800           0.05592450           0.17084663 C 
atom_frac            0.90545300           0.94407500           0.16248662 C 
atom_frac            0.92927800           0.90950700           0.16459800 C 
atom_frac            0.92927800           0.90950700           0.16873537 C 
atom_frac            0.90545300           0.94407500           0.17084663 C 
atom_frac            0.98022900           0.90950700           0.16248537 C 
atom_frac            0.03862200           0.94407500           0.16459662 C 
atom_frac            0.03862200           0.94407500           0.16873675 C 
atom_frac            0.98022900           0.90950700           0.17084800 C 
atom_frac            0.08232610           0.00000000           0.17498488 C 
atom_frac            0.09454650           0.05592450           0.17709663 C 
atom_frac            0.09454660           0.05592450           0.18123675 C 
atom_frac            0.08232610           0.00000002           0.18334838 C 
atom_frac            0.07072190           0.09049270           0.17498537 C 
atom_frac            0.01977080           0.09049270           0.17709800 C 
atom_frac            0.01977080           0.09049260           0.18123538 C 
atom_frac            0.07072190           0.09049270           0.18334800 C 
atom_frac            0.96137800           0.05592450           0.17498663 C 
atom_frac            0.91767400           0.00000003           0.17709838 C 
atom_frac            0.91767400           0.00000001           0.18123487 C 
atom_frac            0.96137800           0.05592450           0.18334663 C 
atom_frac            0.90545300           0.94407500           0.17498663 C 
atom_frac            0.92927800           0.90950700           0.17709800 C 
atom_frac            0.92927800           0.90950700           0.18123538 C 
atom_frac            0.90545300           0.94407500           0.18334663 C 
atom_frac            0.98022900           0.90950700           0.17498537 C 
atom_frac            0.03862200           0.94407500           0.17709663 C 
atom_frac            0.03862200           0.94407500           0.18123675 C 
atom_frac            0.98022900           0.90950700           0.18334800 C 
atom_frac            0.08232610           0.00000000           0.18748487 C 
atom_frac            0.09454650           0.05592450           0.18959662 C 
atom_frac            0.09454660           0.05592450           0.19373675 C 
atom_frac            0.08232610           0.00000002           0.19584837 C 
atom_frac            0.07072190           0.09049270           0.18748538 C 
atom_frac            0.01977080           0.09049270           0.18959800 C 
atom_frac            0.01977080           0.09049260           0.19373537 C 
atom_frac            0.07072190           0.09049270           0.19584800 C 
atom_frac            0.96137800           0.05592450           0.18748662 C 
atom_frac            0.91767400           0.00000003           0.18959838 C 
atom_frac            0.91767400           0.00000001           0.19373488 C 
atom_frac            0.96137800           0.05592450           0.19584662 C 
atom_frac            0.90545300           0.94407500           0.18748662 C 
atom_frac            0.92927800           0.90950700           0.18959800 C 
atom_frac            0.92927800           0.90950700           0.19373537 C 
atom_frac            0.90545300           0.94407500           0.19584662 C 
atom_frac            0.98022900           0.90950700           0.18748538 C 
atom_frac            0.03862200           0.94407500           0.18959662 C 
atom_frac            0.03862200           0.94407500           0.19373675 C 
atom_frac            0.98022900           0.90950700           0.19584800 C 
atom_frac            0.08232610           0.00000000           0.19998488 C 
atom_frac            0.09454650           0.05592450           0.20209663 C 
atom_frac            0.09454660           0.05592450           0.20623675 C 
atom_frac            0.08232610           0.00000002           0.20834838 C 
atom_frac            0.07072190           0.09049270           0.19998537 C 
atom_frac            0.01977080           0.09049270           0.20209800 C 
atom_frac            0.01977080           0.09049260           0.20623537 C 
atom_frac            0.07072190           0.09049270           0.20834800 C 
atom_frac            0.96137800           0.05592450           0.19998663 C 
atom_frac            0.91767400           0.00000003           0.20209837 C 
atom_frac            0.91767400           0.00000001           0.20623488 C 
atom_frac            0.96137800           0.05592450           0.20834663 C 
atom_frac            0.90545300           0.94407500           0.19998663 C 
atom_frac            0.92927800           0.90950700           0.20209800 C 
atom_frac            0.92927800           0.90950700           0.20623537 C 
atom_frac            0.90545300           0.94407500           0.20834663 C 
atom_frac            0.98022900           0.90950700           0.19998537 C 
atom_frac            0.03862200           0.94407500           0.20209663 C 
atom_frac            0.03862200           0.94407500           0.20623675 C 
atom_frac            0.98022900           0.90950700           0.20834800 C 
atom_frac            0.08232610           0.00000000           0.21248487 C 
atom_frac            0.09454650           0.05592450           0.21459663 C 
atom_frac            0.09454660           0.05592450           0.21873675 C 
atom_frac            0.08232610           0.00000002           0.22084838 C 
atom_frac            0.07072190           0.09049270           0.21248538 C 
atom_frac            0.01977080           0.09049270           0.21459800 C 
atom_frac            0.01977080           0.09049260           0.21873538 C 
atom_frac            0.07072190           0.09049270           0.22084800 C 
atom_frac            0.96137800           0.05592450           0.21248663 C 
atom_frac            0.91767400           0.00000003           0.21459838 C 
atom_frac            0.91767400           0.00000001           0.21873487 C 
atom_frac            0.96137800           0.05592450           0.22084662 C 
atom_frac            0.90545300           0.94407500           0.21248663 C 
atom_frac            0.92927800           0.90950700           0.21459800 C 
atom_frac            0.92927800           0.90950700           0.21873538 C 
atom_frac            0.90545300           0.94407500           0.22084662 C 
atom_frac            0.98022900           0.90950700           0.21248538 C 
atom_frac            0.03862200           0.94407500           0.21459663 C 
atom_frac            0.03862200           0.94407500           0.21873675 C 
atom_frac            0.98022900           0.90950700           0.22084800 C 
atom_frac            0.08232610           0.00000000           0.22498488 C 
atom_frac            0.09454650           0.05592450           0.22709662 C 
atom_frac            0.09454660           0.05592450           0.23123663 C 
atom_frac            0.08232610           0.00000002           0.23334837 C 
atom_frac            0.07072190           0.09049270           0.22498537 C 
atom_frac            0.01977080           0.09049270           0.22709800 C 
atom_frac            0.01977080           0.09049260           0.23123537 C 
atom_frac            0.07072190           0.09049270           0.23334800 C 
atom_frac            0.96137800           0.05592450           0.22498662 C 
atom_frac            0.91767400           0.00000003           0.22709837 C 
atom_frac            0.91767400           0.00000001           0.23123488 C 
atom_frac            0.96137800           0.05592450           0.23334663 C 
atom_frac            0.90545300           0.94407500           0.22498662 C 
atom_frac            0.92927800           0.90950700           0.22709800 C 
atom_frac            0.92927800           0.90950700           0.23123537 C 
atom_frac            0.90545300           0.94407500           0.23334663 C 
atom_frac            0.98022900           0.90950700           0.22498537 C 
atom_frac            0.03862200           0.94407500           0.22709662 C 
atom_frac            0.03862200           0.94407500           0.23123663 C 
atom_frac            0.98022900           0.90950700           0.23334800 C 
atom_frac            0.08232610           0.00000000           0.23748488 C 
atom_frac            0.09454650           0.05592450           0.23959663 C 
atom_frac            0.09454660           0.05592450           0.24373663 C 
atom_frac            0.08232610           0.00000002           0.24584838 C 
atom_frac            0.07072190           0.09049270           0.23748537 C 
atom_frac            0.01977080           0.09049270           0.23959800 C 