lattice_vector            9.84480000         -17.05168000           0.00000000
lattice_vector            9.84480000          17.05168000           0.00000000
lattice_vector            0.00000000           0.00000000          53.67200000

atom_frac            0.00000000           0.00000000           0.03125000 C 
atom_frac            0.00000000           0.00000000           0.09375000 C 
atom_frac            0.04166662           0.08333338           0.03125000 C 
atom_frac            0.08333338           0.04166662           0.09375000 C 
atom_frac            0.00000000           0.00000000           0.15625000 C 
atom_frac            0.00000000           0.00000000           0.21875000 C 
atom_frac            0.04166662           0.08333338           0.15625000 C 
atom_frac            0.08333338           0.04166662           0.21875000 C 
atom_frac            0.00000000           0.00000000           0.28125000 C 
atom_frac            0.00000000           0.00000000           0.34375000 C 
atom_frac            0.04166662           0.08333338           0.28125000 C 
atom_frac            0.08333338           0.04166662           0.34375000 C 
atom_frac            0.00000000           0.00000000           0.40625000 C 
atom_frac            0.00000000           0.00000000           0.46875000 C 
atom_frac            0.04166662           0.08333338           0.40625000 C 
atom_frac            0.08333338           0.04166662           0.46875000 C 
atom_frac            0.00000000           0.00000000           0.53125000 C 
atom_frac            0.00000000           0.00000000           0.59375000 C 
atom_frac            0.04166662           0.08333338           0.53125000 C 
atom_frac            0.08333338           0.04166662           0.59375000 C 
atom_frac            0.00000000           0.00000000           0.65625000 C 
atom_frac            0.00000000           0.00000000           0.71875000 C 
atom_frac            0.04166662           0.08333338           0.65625000 C 
atom_frac            0.08333338           0.04166662           0.71875000 C 
atom_frac            0.00000000           0.00000000           0.78125000 C 
atom_frac            0.00000000           0.00000000           0.84375000 C 
atom_frac            0.04166662           0.08333338           0.78125000 C 
atom_frac            0.08333338           0.04166662           0.84375000 C 
atom_frac            0.00000000           0.00000000           0.90625000 C 
atom_frac            0.00000000           0.00000000           0.96875000 C 
atom_frac            0.04166662           0.08333338           0.90625000 C 
atom_frac            0.08333338           0.04166662           0.96875000 C 
atom_frac            0.00000000           0.12500000           0.03125000 C 
atom_frac            0.00000000           0.12500000           0.09375000 C 
atom_frac            0.04166662           0.20833337           0.03125000 C 
atom_frac            0.08333338           0.16666663           0.09375000 C 
atom_frac            0.00000000           0.12500000           0.15625000 C 
atom_frac            0.00000000           0.12500000           0.21875000 C 
atom_frac            0.04166662           0.20833337           0.15625000 C 
atom_frac            0.08333338           0.16666663           0.21875000 C 
atom_frac            0.00000000           0.12500000           0.28125000 C 
atom_frac            0.00000000           0.12500000           0.34375000 C 
atom_frac            0.04166662           0.20833337           0.28125000 C 
atom_frac            0.08333338           0.16666663           0.34375000 C 
atom_frac            0.00000000           0.12500000           0.40625000 C 
atom_frac            0.00000000           0.12500000           0.46875000 C 
atom_frac            0.04166662           0.20833337           0.40625000 C 
atom_frac            0.08333338           0.16666663           0.46875000 C 
atom_frac            0.00000000           0.12500000           0.53125000 C 
atom_frac            0.00000000           0.12500000           0.59375000 C 
atom_frac            0.04166662           0.20833337           0.53125000 C 
atom_frac            0.08333338           0.16666663           0.59375000 C 
atom_frac            0.00000000           0.12500000           0.65625000 C 
atom_frac            0.00000000           0.12500000           0.71875000 C 
atom_frac            0.04166662           0.20833337           0.65625000 C 
atom_frac            0.08333338           0.16666663           0.71875000 C 
atom_frac            0.00000000           0.12500000           0.78125000 C 
atom_frac            0.00000000           0.12500000           0.84375000 C 
atom_frac            0.04166662           0.20833337           0.78125000 C 
atom_frac            0.08333338           0.16666663           0.84375000 C 
atom_frac            0.00000000           0.12500000           0.90625000 C 
atom_frac            0.00000000           0.12500000           0.96875000 C 
atom_frac            0.04166662           0.20833337           0.90625000 C 
atom_frac            0.08333338           0.16666663           0.96875000 C 
atom_frac            0.00000000           0.25000000           0.03125000 C 
atom_frac            0.00000000           0.25000000           0.09375000 C 
atom_frac            0.04166662           0.33333337           0.03125000 C 
atom_frac            0.08333338           0.29166663           0.09375000 C 
atom_frac            0.00000000           0.25000000           0.15625000 C 
atom_frac            0.00000000           0.25000000           0.21875000 C 
atom_frac            0.04166662           0.33333337           0.15625000 C 
atom_frac            0.08333338           0.29166663           0.21875000 C 
atom_frac            0.00000000           0.25000000           0.28125000 C 
atom_frac            0.00000000           0.25000000           0.34375000 C 
atom_frac            0.04166662           0.33333337           0.28125000 C 
atom_frac            0.08333338           0.29166663           0.34375000 C 
atom_frac            0.00000000           0.25000000           0.40625000 C 
atom_frac            0.00000000           0.25000000           0.46875000 C 
atom_frac            0.04166662           0.33333337           0.40625000 C 
atom_frac            0.08333338           0.29166663           0.46875000 C 
atom_frac            0.00000000           0.25000000           0.53125000 C 
atom_frac            0.00000000           0.25000000           0.59375000 C 
atom_frac            0.04166662           0.33333337           0.53125000 C 
atom_frac            0.08333338           0.29166663           0.59375000 C 
atom_frac            0.00000000           0.25000000           0.65625000 C 
atom_frac            0.00000000           0.25000000           0.71875000 C 
atom_frac            0.04166662           0.33333337           0.65625000 C 
atom_frac            0.08333338           0.29166663           0.71875000 C 
atom_frac            0.00000000           0.25000000           0.78125000 C 
atom_frac            0.00000000           0.25000000           0.84375000 C 
atom_frac            0.04166662           0.33333337           0.78125000 C 
atom_frac            0.08333338           0.29166663           0.84375000 C 
atom_frac            0.00000000           0.25000000           0.90625000 C 
atom_frac            0.00000000           0.25000000           0.96875000 C 
atom_frac            0.04166662           0.33333337           0.90625000 C 
atom_frac            0.08333338           0.29166663           0.96875000 C 
atom_frac            0.00000000           0.37500000           0.03125000 C 
atom_frac            0.00000000           0.37500000           0.09375000 C 
atom_frac            0.04166662           0.45833337           0.03125000 C 
atom_frac            0.08333338           0.41666663           0.09375000 C 
atom_frac            0.00000000           0.37500000           0.15625000 C 
atom_frac            0.00000000           0.37500000           0.21875000 C 
atom_frac            0.04166662           0.45833337           0.15625000 C 
atom_frac            0.08333338           0.41666663           0.21875000 C 
atom_frac            0.00000000           0.37500000           0.28125000 C 
atom_frac            0.00000000           0.37500000           0.34375000 C 
atom_frac            0.04166662           0.45833337           0.28125000 C 
atom_frac            0.08333338           0.41666663           0.34375000 C 
atom_frac            0.00000000           0.37500000           0.40625000 C 
atom_frac            0.00000000           0.37500000           0.46875000 C 
atom_frac            0.04166662           0.45833337           0.40625000 C 
atom_frac            0.08333338           0.41666663           0.46875000 C 
atom_frac            0.00000000           0.37500000           0.53125000 C 
atom_frac            0.00000000           0.37500000           0.59375000 C 
atom_frac            0.04166662           0.45833337           0.53125000 C 
atom_frac            0.08333338           0.41666663           0.59375000 C 
atom_frac            0.00000000           0.37500000           0.65625000 C 
atom_frac            0.00000000           0.37500000           0.71875000 C 
atom_frac            0.04166662           0.45833337           0.65625000 C 
atom_frac            0.08333338           0.41666663           0.71875000 C 
atom_frac            0.00000000           0.37500000           0.78125000 C 
atom_frac            0.00000000           0.37500000           0.84375000 C 
atom_frac            0.04166662           0.45833337           0.78125000 C 
atom_frac            0.08333338           0.41666663           0.84375000 C 
atom_frac            0.00000000           0.37500000           0.90625000 C 
atom_frac            0.00000000           0.37500000           0.96875000 C 
atom_frac            0.04166662           0.45833337           0.90625000 C 
atom_frac            0.08333338           0.41666663           0.96875000 C 
atom_frac            0.00000000           0.50000000           0.03125000 C 
atom_frac            0.00000000           0.50000000           0.09375000 C 
atom_frac            0.04166662           0.58333338           0.03125000 C 
atom_frac            0.08333338           0.54166662           0.09375000 C 
atom_frac            0.00000000           0.50000000           0.15625000 C 
atom_frac            0.00000000           0.50000000           0.21875000 C 
atom_frac            0.04166662           0.58333338           0.15625000 C 
atom_frac            0.08333338           0.54166662           0.21875000 C 
atom_frac            0.00000000           0.50000000           0.28125000 C 
atom_frac            0.00000000           0.50000000           0.34375000 C 
atom_frac            0.04166662           0.58333338           0.28125000 C 
atom_frac            0.08333338           0.54166662           0.34375000 C 
atom_frac            0.00000000           0.50000000           0.40625000 C 
atom_frac            0.00000000           0.50000000           0.46875000 C 
atom_frac            0.04166662           0.58333338           0.40625000 C 
atom_frac            0.08333338           0.54166662           0.46875000 C 
atom_frac            0.00000000           0.50000000           0.53125000 C 
atom_frac            0.00000000           0.50000000           0.59375000 C 
atom_frac            0.04166662           0.58333338           0.53125000 C 
atom_frac            0.08333338           0.54166662           0.59375000 C 
atom_frac            0.00000000           0.50000000           0.65625000 C 
atom_frac            0.00000000           0.50000000           0.71875000 C 
atom_frac            0.04166662           0.58333338           0.65625000 C 
atom_frac            0.08333338           0.54166662           0.71875000 C 
atom_frac            0.00000000           0.50000000           0.78125000 C 
atom_frac            0.00000000           0.50000000           0.84375000 C 
atom_frac            0.04166662           0.58333338           0.78125000 C 
atom_frac            0.08333338           0.54166662           0.84375000 C 
atom_frac            0.00000000           0.50000000           0.90625000 C 
atom_frac            0.00000000           0.50000000           0.96875000 C 
atom_frac            0.04166662           0.58333338           0.90625000 C 
atom_frac            0.08333338           0.54166662           0.96875000 C 
atom_frac            0.00000000           0.62500000           0.03125000 C 
atom_frac            0.00000000           0.62500000           0.09375000 C 
atom_frac            0.04166662           0.70833338           0.03125000 C 
atom_frac            0.08333338           0.66666662           0.09375000 C 
atom_frac            0.00000000           0.62500000           0.15625000 C 
atom_frac            0.00000000           0.62500000           0.21875000 C 
atom_frac            0.04166662           0.70833338           0.15625000 C 
atom_frac            0.08333338           0.66666662           0.21875000 C 
atom_frac            0.00000000           0.62500000           0.28125000 C 
atom_frac            0.00000000           0.62500000           0.34375000 C 
atom_frac            0.04166662           0.70833338           0.28125000 C 
atom_frac            0.08333338           0.66666662           0.34375000 C 
atom_frac            0.00000000           0.62500000           0.40625000 C 
atom_frac            0.00000000           0.62500000           0.46875000 C 
atom_frac            0.04166662           0.70833338           0.40625000 C 
atom_frac            0.08333338           0.66666662           0.46875000 C 
atom_frac            0.00000000           0.62500000           0.53125000 C 
atom_frac            0.00000000           0.62500000           0.59375000 C 
atom_frac            0.04166662           0.70833338           0.53125000 C 
atom_frac            0.08333338           0.66666662           0.59375000 C 
atom_frac            0.00000000           0.62500000           0.65625000 C 
atom_frac            0.00000000           0.62500000           0.71875000 C 
atom_frac            0.04166662           0.70833338           0.65625000 C 
atom_frac            0.08333338           0.66666662           0.71875000 C 
atom_frac            0.00000000           0.62500000           0.78125000 C 
atom_frac            0.00000000           0.62500000           0.84375000 C 
atom_frac            0.04166662           0.70833338           0.78125000 C 
atom_frac            0.08333338           0.66666662           0.84375000 C 
atom_frac            0.00000000           0.62500000           0.90625000 C 
atom_frac            0.00000000           0.62500000           0.96875000 C 
atom_frac            0.04166662           0.70833338           0.90625000 C 
atom_frac            0.08333338           0.66666662           0.96875000 C 
atom_frac            0.00000000           0.75000000           0.03125000 C 
atom_frac            0.00000000           0.75000000           0.09375000 C 
atom_frac            0.04166662           0.83333338           0.03125000 C 
atom_frac            0.08333338           0.79166662           0.09375000 C 
atom_frac            0.00000000           0.75000000           0.15625000 C 
atom_frac            0.00000000           0.75000000           0.21875000 C 
atom_frac            0.04166662           0.83333338           0.15625000 C 
atom_frac            0.08333338           0.79166662           0.21875000 C 
atom_frac            0.00000000           0.75000000           0.28125000 C 
atom_frac            0.00000000           0.75000000           0.34375000 C 
atom_frac            0.04166662           0.83333338           0.28125000 C 
atom_frac            0.08333338           0.79166662           0.34375000 C 
atom_frac            0.00000000           0.75000000           0.40625000 C 
atom_frac            0.00000000           0.75000000           0.46875000 C 
atom_frac            0.04166662           0.83333338           0.40625000 C 
atom_frac            0.08333338           0.79166662           0.46875000 C 
atom_frac            0.00000000           0.75000000           0.53125000 C 
atom_frac            0.00000000           0.75000000           0.59375000 C 
atom_frac            0.04166662           0.83333338           0.53125000 C 
atom_frac            0.08333338           0.79166662           0.59375000 C 
atom_frac            0.00000000           0.75000000           0.65625000 C 
atom_frac            0.00000000           0.75000000           0.71875000 C 
atom_frac            0.04166662           0.83333338           0.65625000 C 
atom_frac            0.08333338           0.79166662           0.71875000 C 
atom_frac            0.00000000           0.75000000           0.78125000 C 
atom_frac            0.00000000           0.75000000           0.84375000 C 
atom_frac            0.04166662           0.83333338           0.78125000 C 
atom_frac            0.08333338           0.79166662           0.84375000 C 
atom_frac            0.00000000           0.75000000           0.90625000 C 
atom_frac            0.00000000           0.75000000           0.96875000 C 
atom_frac            0.04166662           0.83333338           0.90625000 C 
atom_frac            0.08333338           0.79166662           0.96875000 C 
atom_frac            0.00000000           0.87500000           0.03125000 C 
atom_frac            0.00000000           0.87500000           0.09375000 C 
atom_frac            0.04166662           0.95833338           0.03125000 C 
atom_frac            0.08333338           0.91666662           0.09375000 C 
atom_frac            0.00000000           0.87500000           0.15625000 C 
atom_frac            0.00000000           0.87500000           0.21875000 C 
atom_frac            0.04166662           0.95833338           0.15625000 C 
atom_frac            0.08333338           0.91666662           0.21875000 C 
atom_frac            0.00000000           0.87500000           0.28125000 C 
atom_frac            0.00000000           0.87500000           0.34375000 C 
atom_frac            0.04166662           0.95833338           0.28125000 C 
atom_frac            0.08333338           0.91666662           0.34375000 C 
atom_frac            0.00000000           0.87500000           0.40625000 C 
atom_frac            0.00000000           0.87500000           0.46875000 C 
atom_frac            0.04166662           0.95833338           0.40625000 C 
atom_frac            0.08333338           0.91666662           0.46875000 C 
atom_frac            0.00000000           0.87500000           0.53125000 C 
atom_frac            0.00000000           0.87500000           0.59375000 C 
atom_frac            0.04166662           0.95833338           0.53125000 C 
atom_frac            0.08333338           0.91666662           0.59375000 C 
atom_frac            0.00000000           0.87500000           0.65625000 C 
atom_frac            0.00000000           0.87500000           0.71875000 C 
atom_frac            0.04166662           0.95833338           0.65625000 C 
atom_frac            0.08333338           0.91666662           0.71875000 C 
atom_frac            0.00000000           0.87500000           0.78125000 C 
atom_frac            0.00000000           0.87500000           0.84375000 C 
atom_frac            0.04166662           0.95833338           0.78125000 C 
atom_frac            0.08333338           0.91666662           0.84375000 C 
atom_frac            0.00000000           0.87500000           0.90625000 C 
atom_frac            0.00000000           0.87500000           0.96875000 C 
atom_frac            0.04166662           0.95833338           0.90625000 C 
atom_frac            0.08333338           0.91666662           0.96875000 C 
atom_frac            0.12500000           0.00000000           0.03125000 C 
atom_frac            0.12500000           0.00000000           0.09375000 C 
atom_frac            0.16666663           0.08333338           0.03125000 C 
atom_frac            0.20833337           0.04166662           0.09375000 C 
atom_frac            0.12500000           0.00000000           0.15625000 C 
atom_frac            0.12500000           0.00000000           0.21875000 C 
atom_frac            0.16666663           0.08333338           0.15625000 C 
atom_frac            0.20833337           0.04166662           0.21875000 C 
atom_frac            0.12500000           0.00000000           0.28125000 C 
atom_frac            0.12500000           0.00000000           0.34375000 C 
atom_frac            0.16666663           0.08333338           0.28125000 C 
atom_frac            0.20833337           0.04166662           0.34375000 C 
atom_frac            0.12500000           0.00000000           0.40625000 C 
atom_frac            0.12500000           0.00000000           0.46875000 C 
atom_frac            0.16666663           0.08333338           0.40625000 C 
atom_frac            0.20833337           0.04166662           0.46875000 C 
atom_frac            0.12500000           0.00000000           0.53125000 C 
atom_frac            0.12500000           0.00000000           0.59375000 C 
atom_frac            0.16666663           0.08333338           0.53125000 C 
atom_frac            0.20833337           0.04166662           0.59375000 C 
atom_frac            0.12500000           0.00000000           0.65625000 C 
atom_frac            0.12500000           0.00000000           0.71875000 C 
atom_frac            0.16666663           0.08333338           0.65625000 C 
atom_frac            0.20833337           0.04166662           0.71875000 C 
atom_frac            0.12500000           0.00000000           0.78125000 C 
atom_frac            0.12500000           0.00000000           0.84375000 C 
atom_frac            0.16666663           0.08333338           0.78125000 C 
atom_frac            0.20833337           0.04166662           0.84375000 C 
atom_frac            0.12500000           0.00000000           0.90625000 C 
atom_frac            0.12500000           0.00000000           0.96875000 C 
atom_frac            0.16666663           0.08333338           0.90625000 C 
atom_frac            0.20833337           0.04166662           0.96875000 C 
atom_frac            0.12500000           0.12500000           0.03125000 C 
atom_frac            0.12500000           0.12500000           0.09375000 C 
atom_frac            0.16666663           0.20833337           0.03125000 C 
atom_frac            0.20833337           0.16666663           0.09375000 C 
atom_frac            0.12500000           0.12500000           0.15625000 C 
atom_frac            0.12500000           0.12500000           0.21875000 C 
atom_frac            0.16666663           0.20833337           0.15625000 C 
atom_frac            0.20833337           0.16666663           0.21875000 C 
atom_frac            0.12500000           0.12500000           0.28125000 C 
atom_frac            0.12500000           0.12500000           0.34375000 C 
atom_frac            0.16666663           0.20833337           0.28125000 C 
atom_frac            0.20833337           0.16666663           0.34375000 C 
atom_frac            0.12500000           0.12500000           0.40625000 C 
atom_frac            0.12500000           0.12500000           0.46875000 C 
atom_frac            0.16666663           0.20833337           0.40625000 C 
atom_frac            0.20833337           0.16666663           0.46875000 C 
atom_frac            0.12500000           0.12500000           0.53125000 C 
atom_frac            0.12500000           0.12500000           0.59375000 C 
atom_frac            0.16666663           0.20833337           0.53125000 C 
atom_frac            0.20833337           0.16666663           0.59375000 C 
atom_frac            0.12500000           0.12500000           0.65625000 C 
atom_frac            0.12500000           0.12500000           0.71875000 C 
atom_frac            0.16666663           0.20833337           0.65625000 C 
atom_frac            0.20833337           0.16666663           0.71875000 C 
atom_frac            0.12500000           0.12500000           0.78125000 C 
atom_frac            0.12500000           0.12500000           0.84375000 C 
atom_frac            0.16666663           0.20833337           0.78125000 C 
atom_frac            0.20833337           0.16666663           0.84375000 C 
atom_frac            0.12500000           0.12500000           0.90625000 C 
atom_frac            0.12500000           0.12500000           0.96875000 C 
atom_frac            0.16666663           0.20833337           0.90625000 C 
atom_frac            0.20833337           0.16666663           0.96875000 C 
atom_frac            0.12500000           0.25000000           0.03125000 C 
atom_frac            0.12500000           0.25000000           0.09375000 C 
atom_frac            0.16666663           0.33333337           0.03125000 C 
atom_frac            0.20833337           0.29166663           0.09375000 C 
atom_frac            0.12500000           0.25000000           0.15625000 C 
atom_frac            0.12500000           0.25000000           0.21875000 C 
atom_frac            0.16666663           0.33333337           0.15625000 C 
atom_frac            0.20833337           0.29166663           0.21875000 C 
atom_frac            0.12500000           0.25000000           0.28125000 C 
atom_frac            0.12500000           0.25000000           0.34375000 C 
atom_frac            0.16666663           0.33333337           0.28125000 C 
atom_frac            0.20833337           0.29166663           0.34375000 C 
atom_frac            0.12500000           0.25000000           0.40625000 C 
atom_frac            0.12500000           0.25000000           0.46875000 C 
atom_frac            0.16666663           0.33333337           0.40625000 C 
atom_frac            0.20833337           0.29166663           0.46875000 C 
atom_frac            0.12500000           0.25000000           0.53125000 C 
atom_frac            0.12500000           0.25000000           0.59375000 C 
atom_frac            0.16666663           0.33333337           0.53125000 C 
atom_frac            0.20833337           0.29166663           0.59375000 C 
atom_frac            0.12500000           0.25000000           0.65625000 C 
atom_frac            0.12500000           0.25000000           0.71875000 C 
atom_frac            0.16666663           0.33333337           0.65625000 C 
atom_frac            0.20833337           0.29166663           0.71875000 C 
atom_frac            0.12500000           0.25000000           0.78125000 C 
atom_frac            0.12500000           0.25000000           0.84375000 C 
atom_frac            0.16666663           0.33333337           0.78125000 C 
atom_frac            0.20833337           0.29166663           0.84375000 C 
atom_frac            0.12500000           0.25000000           0.90625000 C 
atom_frac            0.12500000           0.25000000           0.96875000 C 
atom_frac            0.16666663           0.33333337           0.90625000 C 
atom_frac            0.20833337           0.29166663           0.96875000 C 
atom_frac            0.12500000           0.37500000           0.03125000 C 
atom_frac            0.12500000           0.37500000           0.09375000 C 
atom_frac            0.16666663           0.45833337           0.03125000 C 
atom_frac            0.20833337           0.41666663           0.09375000 C 
atom_frac            0.12500000           0.37500000           0.15625000 C 
atom_frac            0.12500000           0.37500000           0.21875000 C 
atom_frac            0.16666663           0.45833337           0.15625000 C 
atom_frac            0.20833337           0.41666663           0.21875000 C 
atom_frac            0.12500000           0.37500000           0.28125000 C 
atom_frac            0.12500000           0.37500000           0.34375000 C 
atom_frac            0.16666663           0.45833337           0.28125000 C 
atom_frac            0.20833337           0.41666663           0.34375000 C 
atom_frac            0.12500000           0.37500000           0.40625000 C 
atom_frac            0.12500000           0.37500000           0.46875000 C 
atom_frac            0.16666663           0.45833337           0.40625000 C 
atom_frac            0.20833337           0.41666663           0.46875000 C 
atom_frac            0.12500000           0.37500000           0.53125000 C 
atom_frac            0.12500000           0.37500000           0.59375000 C 
atom_frac            0.16666663           0.45833337           0.53125000 C 
atom_frac            0.20833337           0.41666663           0.59375000 C 
atom_frac            0.12500000           0.37500000           0.65625000 C 
atom_frac            0.12500000           0.37500000           0.71875000 C 
atom_frac            0.16666663           0.45833337           0.65625000 C 
atom_frac            0.20833337           0.41666663           0.71875000 C 
atom_frac            0.12500000           0.37500000           0.78125000 C 
atom_frac            0.12500000           0.37500000           0.84375000 C 
atom_frac            0.16666663           0.45833337           0.78125000 C 
atom_frac            0.20833337           0.41666663           0.84375000 C 
atom_frac            0.12500000           0.37500000           0.90625000 C 
atom_frac            0.12500000           0.37500000           0.96875000 C 
atom_frac            0.16666663           0.45833337           0.90625000 C 
atom_frac            0.20833337           0.41666663           0.96875000 C 
atom_frac            0.12500000           0.50000000           0.03125000 C 
atom_frac            0.12500000           0.50000000           0.09375000 C 