lattice_vector           12.30600000         -21.31460000           0.00000000
lattice_vector           12.30600000          21.31460000           0.00000000
lattice_vector            0.00000000           0.00000000          25.00000000

atom_frac            0.00000000           0.90000000           0.00000000 C 
atom_frac            0.03333330           0.96666700           0.00000000 C 
atom_frac            0.00000000           0.00000000           0.00000000 C 
atom_frac            0.03333330           0.06666670           0.00000000 C 
atom_frac            0.00000000           0.10000000           0.00000000 C 
atom_frac            0.03333330           0.16666700           0.00000000 C 
atom_frac            0.00000000           0.20000000           0.00000000 C 
atom_frac            0.03333330           0.26666700           0.00000000 C 
atom_frac            0.00000000           0.30000000           0.00000000 C 
atom_frac            0.03333330           0.36666700           0.00000000 C 
atom_frac            0.00000000           0.40000000           0.00000000 C 
atom_frac            0.03333330           0.46666700           0.00000000 C 
atom_frac            0.00000000           0.50000000           0.00000000 C 
atom_frac            0.03333330           0.56666700           0.00000000 C 
atom_frac            0.00000000           0.60000000           0.00000000 C 
atom_frac            0.03333330           0.66666700           0.00000000 C 
atom_frac            0.00000000           0.70000000           0.00000000 C 
atom_frac            0.03333330           0.76666700           0.00000000 C 
atom_frac            0.00000000           0.80000000           0.00000000 C 
atom_frac            0.03333330           0.86666700           0.00000000 C 
atom_frac            0.10000000           0.90000000           0.00000000 C 
atom_frac            0.13333300           0.96666700           0.00000000 C 
atom_frac            0.10000000           0.00000000           0.00000000 C 
atom_frac            0.13333300           0.06666670           0.00000000 C 
atom_frac            0.10000000           0.10000000           0.00000000 C 
atom_frac            0.13333300           0.16666700           0.00000000 C 
atom_frac            0.10000000           0.20000000           0.00000000 C 
atom_frac            0.13333300           0.26666700           0.00000000 C 
atom_frac            0.10000000           0.30000000           0.00000000 C 
atom_frac            0.13333300           0.36666700           0.00000000 C 
atom_frac            0.10000000           0.40000000           0.00000000 C 
atom_frac            0.13333300           0.46666700           0.00000000 C 
atom_frac            0.10000000           0.50000000           0.00000000 C 
atom_frac            0.13333300           0.56666700           0.00000000 C 
atom_frac            0.10000000           0.60000000           0.00000000 C 
atom_frac            0.13333300           0.66666700           0.00000000 C 
atom_frac            0.10000000           0.70000000           0.00000000 C 
atom_frac            0.13333300           0.76666700           0.00000000 C 
atom_frac            0.10000000           0.80000000           0.00000000 C 
atom_frac            0.13333300           0.86666700           0.00000000 C 
atom_frac            0.20000000           0.90000000           0.00000000 C 
atom_frac            0.23333300           0.96666700           0.00000000 C 
atom_frac            0.20000000           0.00000000           0.00000000 C 
atom_frac            0.23333300           0.06666670           0.00000000 C 
atom_frac            0.20000000           0.10000000           0.00000000 C 
atom_frac            0.23333300           0.16666700           0.00000000 C 
atom_frac            0.20000000           0.20000000           0.00000000 C 
atom_frac            0.23333300           0.26666700           0.00000000 C 
atom_frac            0.20000000           0.30000000           0.00000000 C 
atom_frac            0.23333300           0.36666700           0.00000000 C 
atom_frac            0.20000000           0.40000000           0.00000000 C 
atom_frac            0.23333300           0.46666700           0.00000000 C 
atom_frac            0.20000000           0.50000000           0.00000000 C 
atom_frac            0.23333300           0.56666700           0.00000000 C 
atom_frac            0.20000000           0.60000000           0.00000000 C 
atom_frac            0.23333300           0.66666700           0.00000000 C 
atom_frac            0.20000000           0.70000000           0.00000000 C 
atom_frac            0.23333300           0.76666700           0.00000000 C 
atom_frac            0.20000000           0.80000000           0.00000000 C 
atom_frac            0.23333300           0.86666700           0.00000000 C 
atom_frac            0.30000000           0.90000000           0.00000000 C 
atom_frac            0.33333300           0.96666700           0.00000000 C 
atom_frac            0.30000000           0.00000000           0.00000000 C 
atom_frac            0.33333300           0.06666670           0.00000000 C 
atom_frac            0.30000000           0.10000000           0.00000000 C 
atom_frac            0.33333300           0.16666700           0.00000000 C 
atom_frac            0.30000000           0.20000000           0.00000000 C 
atom_frac            0.33333300           0.26666700           0.00000000 C 
atom_frac            0.30000000           0.30000000           0.00000000 C 
atom_frac            0.33333300           0.36666700           0.00000000 C 
atom_frac            0.30000000           0.40000000           0.00000000 C 
atom_frac            0.33333300           0.46666700           0.00000000 C 
atom_frac            0.30000000           0.50000000           0.00000000 C 
atom_frac            0.33333300           0.56666700           0.00000000 C 
atom_frac            0.30000000           0.60000000           0.00000000 C 
atom_frac            0.33333300           0.66666700           0.00000000 C 
atom_frac            0.30000000           0.70000000           0.00000000 C 
atom_frac            0.33333300           0.76666700           0.00000000 C 
atom_frac            0.30000000           0.80000000           0.00000000 C 
atom_frac            0.33333300           0.86666700           0.00000000 C 
atom_frac            0.40000000           0.90000000           0.00000000 C 
atom_frac            0.43333300           0.96666700           0.00000000 C 
atom_frac            0.40000000           0.00000000           0.00000000 C 
atom_frac            0.43333300           0.06666670           0.00000000 C 
atom_frac            0.40000000           0.10000000           0.00000000 C 
atom_frac            0.43333300           0.16666700           0.00000000 C 
atom_frac            0.40000000           0.20000000           0.00000000 C 
atom_frac            0.43333300           0.26666700           0.00000000 C 
atom_frac            0.40000000           0.30000000           0.00000000 C 
atom_frac            0.43333300           0.36666700           0.00000000 C 
atom_frac            0.40000000           0.40000000           0.00000000 C 
atom_frac            0.43333300           0.46666700           0.00000000 C 
atom_frac            0.40000000           0.50000000           0.00000000 C 
atom_frac            0.43333300           0.56666700           0.00000000 C 
atom_frac            0.40000000           0.60000000           0.00000000 C 
atom_frac            0.43333300           0.66666700           0.00000000 C 
atom_frac            0.40000000           0.70000000           0.00000000 C 
atom_frac            0.43333300           0.76666700           0.00000000 C 
atom_frac            0.40000000           0.80000000           0.00000000 C 
atom_frac            0.43333300           0.86666700           0.00000000 C 
atom_frac            0.50000000           0.90000000           0.00000000 C 
atom_frac            0.53333300           0.96666700           0.00000000 C 
atom_frac            0.50000000           0.00000000           0.00000000 C 
atom_frac            0.53333300           0.06666670           0.00000000 C 
atom_frac            0.50000000           0.10000000           0.00000000 C 
atom_frac            0.53333300           0.16666700           0.00000000 C 
atom_frac            0.50000000           0.20000000           0.00000000 C 
atom_frac            0.53333300           0.26666700           0.00000000 C 
atom_frac            0.50000000           0.30000000           0.00000000 C 
atom_frac            0.53333300           0.36666700           0.00000000 C 
atom_frac            0.50000000           0.40000000           0.00000000 C 
atom_frac            0.53333300           0.46666700           0.00000000 C 
atom_frac            0.50000000           0.50000000           0.00000000 C 
atom_frac            0.53333300           0.56666700           0.00000000 C 
atom_frac            0.50000000           0.60000000           0.00000000 C 
atom_frac            0.53333300           0.66666700           0.00000000 C 
atom_frac            0.50000000           0.70000000           0.00000000 C 
atom_frac            0.53333300           0.76666700           0.00000000 C 
atom_frac            0.50000000           0.80000000           0.00000000 C 
atom_frac            0.53333300           0.86666700           0.00000000 C 
atom_frac            0.60000000           0.90000000           0.00000000 C 
atom_frac            0.63333300           0.96666700           0.00000000 C 
atom_frac            0.60000000           0.00000000           0.00000000 C 
atom_frac            0.63333300           0.06666670           0.00000000 C 
atom_frac            0.60000000           0.10000000           0.00000000 C 
atom_frac            0.63333300           0.16666700           0.00000000 C 
atom_frac            0.60000000           0.20000000           0.00000000 C 
atom_frac            0.63333300           0.26666700           0.00000000 C 
atom_frac            0.60000000           0.30000000           0.00000000 C 
atom_frac            0.63333300           0.36666700           0.00000000 C 
atom_frac            0.60000000           0.40000000           0.00000000 C 
atom_frac            0.63333300           0.46666700           0.00000000 C 
atom_frac            0.60000000           0.50000000           0.00000000 C 
atom_frac            0.63333300           0.56666700           0.00000000 C 
atom_frac            0.60000000           0.60000000           0.00000000 C 
atom_frac            0.63333300           0.66666700           0.00000000 C 
atom_frac            0.60000000           0.70000000           0.00000000 C 
atom_frac            0.63333300           0.76666700           0.00000000 C 
atom_frac            0.60000000           0.80000000           0.00000000 C 
atom_frac            0.63333300           0.86666700           0.00000000 C 
atom_frac            0.70000000           0.90000000           0.00000000 C 
atom_frac            0.73333300           0.96666700           0.00000000 C 
atom_frac            0.70000000           0.00000000           0.00000000 C 
atom_frac            0.73333300           0.06666670           0.00000000 C 
atom_frac            0.70000000           0.10000000           0.00000000 C 
atom_frac            0.73333300           0.16666700           0.00000000 C 
atom_frac            0.70000000           0.20000000           0.00000000 C 
atom_frac            0.73333300           0.26666700           0.00000000 C 
atom_frac            0.70000000           0.30000000           0.00000000 C 
atom_frac            0.73333300           0.36666700           0.00000000 C 
atom_frac            0.70000000           0.40000000           0.00000000 C 
atom_frac            0.73333300           0.46666700           0.00000000 C 
atom_frac            0.70000000           0.50000000           0.00000000 C 
atom_frac            0.73333300           0.56666700           0.00000000 C 
atom_frac            0.70000000           0.60000000           0.00000000 C 
atom_frac            0.73333300           0.66666700           0.00000000 C 
atom_frac            0.70000000           0.70000000           0.00000000 C 
atom_frac            0.73333300           0.76666700           0.00000000 C 
atom_frac            0.70000000           0.80000000           0.00000000 C 
atom_frac            0.73333300           0.86666700           0.00000000 C 
atom_frac            0.80000000           0.90000000           0.00000000 C 
atom_frac            0.83333300           0.96666700           0.00000000 C 
atom_frac            0.80000000           0.00000000           0.00000000 C 
atom_frac            0.83333300           0.06666670           0.00000000 C 
atom_frac            0.80000000           0.10000000           0.00000000 C 
atom_frac            0.83333300           0.16666700           0.00000000 C 
atom_frac            0.80000000           0.20000000           0.00000000 C 
atom_frac            0.83333300           0.26666700           0.00000000 C 
atom_frac            0.80000000           0.30000000           0.00000000 C 
atom_frac            0.83333300           0.36666700           0.00000000 C 
atom_frac            0.80000000           0.40000000           0.00000000 C 
atom_frac            0.83333300           0.46666700           0.00000000 C 
atom_frac            0.80000000           0.50000000           0.00000000 C 
atom_frac            0.83333300           0.56666700           0.00000000 C 
atom_frac            0.80000000           0.60000000           0.00000000 C 
atom_frac            0.83333300           0.66666700           0.00000000 C 
atom_frac            0.80000000           0.70000000           0.00000000 C 
atom_frac            0.83333300           0.76666700           0.00000000 C 
atom_frac            0.80000000           0.80000000           0.00000000 C 
atom_frac            0.83333300           0.86666700           0.00000000 C 
atom_frac            0.90000000           0.90000000           0.00000000 C 
atom_frac            0.93333300           0.96666700           0.00000000 C 
atom_frac            0.90000000          -0.00000000           0.00000000 C 
atom_frac            0.93333300           0.06666670           0.00000000 C 
atom_frac            0.90000000           0.10000000           0.00000000 C 
atom_frac            0.93333300           0.16666700           0.00000000 C 
atom_frac            0.90000000           0.20000000           0.00000000 C 
atom_frac            0.93333300           0.26666700           0.00000000 C 
atom_frac            0.90000000           0.30000000           0.00000000 C 
atom_frac            0.93333300           0.36666700           0.00000000 C 
atom_frac            0.90000000           0.40000000           0.00000000 C 
atom_frac            0.93333300           0.46666700           0.00000000 C 
atom_frac            0.90000000           0.50000000           0.00000000 C 
atom_frac            0.93333300           0.56666700           0.00000000 C 
atom_frac            0.90000000           0.60000000           0.00000000 C 
atom_frac            0.93333300           0.66666700           0.00000000 C 
atom_frac            0.90000000           0.70000000           0.00000000 C 
atom_frac            0.93333300           0.76666700           0.00000000 C 
atom_frac            0.90000000           0.80000000           0.00000000 C 
atom_frac            0.93333300           0.86666700           0.00000000 C 
