lattice_vector           24.61200000         -42.62920000           0.00000000
lattice_vector           24.61200000          42.62920000           0.00000000
lattice_vector            0.00000000           0.00000000          25.00000000

atom_frac            0.00000000           0.45000000           0.00000000 C 
atom_frac            0.01666665           0.48333350           0.00000000 C 
atom_frac            0.00000000           0.00000000           0.00000000 C 
atom_frac            0.01666665           0.03333335           0.00000000 C 
atom_frac            0.00000000           0.05000000           0.00000000 C 
atom_frac            0.01666665           0.08333350           0.00000000 C 
atom_frac            0.00000000           0.10000000           0.00000000 C 
atom_frac            0.01666665           0.13333350           0.00000000 C 
atom_frac            0.00000000           0.15000000           0.00000000 C 
atom_frac            0.01666665           0.18333350           0.00000000 C 
atom_frac            0.00000000           0.20000000           0.00000000 C 
atom_frac            0.01666665           0.23333350           0.00000000 C 
atom_frac            0.00000000           0.25000000           0.00000000 C 
atom_frac            0.01666665           0.28333350           0.00000000 C 
atom_frac            0.00000000           0.30000000           0.00000000 C 
atom_frac            0.01666665           0.33333350           0.00000000 C 
atom_frac            0.00000000           0.35000000           0.00000000 C 
atom_frac            0.01666665           0.38333350           0.00000000 C 
atom_frac            0.00000000           0.40000000           0.00000000 C 
atom_frac            0.01666665           0.43333350           0.00000000 C 
atom_frac            0.05000000           0.45000000           0.00000000 C 
atom_frac            0.06666650           0.48333350           0.00000000 C 
atom_frac            0.05000000           0.00000000           0.00000000 C 
atom_frac            0.06666650           0.03333335           0.00000000 C 
atom_frac            0.05000000           0.05000000           0.00000000 C 
atom_frac            0.06666650           0.08333350           0.00000000 C 
atom_frac            0.05000000           0.10000000           0.00000000 C 
atom_frac            0.06666650           0.13333350           0.00000000 C 
atom_frac            0.05000000           0.15000000           0.00000000 C 
atom_frac            0.06666650           0.18333350           0.00000000 C 
atom_frac            0.05000000           0.20000000           0.00000000 C 
atom_frac            0.06666650           0.23333350           0.00000000 C 
atom_frac            0.05000000           0.25000000           0.00000000 C 
atom_frac            0.06666650           0.28333350           0.00000000 C 
atom_frac            0.05000000           0.30000000           0.00000000 C 
atom_frac            0.06666650           0.33333350           0.00000000 C 
atom_frac            0.05000000           0.35000000           0.00000000 C 
atom_frac            0.06666650           0.38333350           0.00000000 C 
atom_frac            0.05000000           0.40000000           0.00000000 C 
atom_frac            0.06666650           0.43333350           0.00000000 C 
atom_frac            0.10000000           0.45000000           0.00000000 C 
atom_frac            0.11666650           0.48333350           0.00000000 C 
atom_frac            0.10000000           0.00000000           0.00000000 C 
atom_frac            0.11666650           0.03333335           0.00000000 C 
atom_frac            0.10000000           0.05000000           0.00000000 C 
atom_frac            0.11666650           0.08333350           0.00000000 C 
atom_frac            0.10000000           0.10000000           0.00000000 C 
atom_frac            0.11666650           0.13333350           0.00000000 C 
atom_frac            0.10000000           0.15000000           0.00000000 C 
atom_frac            0.11666650           0.18333350           0.00000000 C 
atom_frac            0.10000000           0.20000000           0.00000000 C 
atom_frac            0.11666650           0.23333350           0.00000000 C 
atom_frac            0.10000000           0.25000000           0.00000000 C 
atom_frac            0.11666650           0.28333350           0.00000000 C 
atom_frac            0.10000000           0.30000000           0.00000000 C 
atom_frac            0.11666650           0.33333350           0.00000000 C 
atom_frac            0.10000000           0.35000000           0.00000000 C 
atom_frac            0.11666650           0.38333350           0.00000000 C 
atom_frac            0.10000000           0.40000000           0.00000000 C 
atom_frac            0.11666650           0.43333350           0.00000000 C 
atom_frac            0.15000000           0.45000000           0.00000000 C 
atom_frac            0.16666650           0.48333350           0.00000000 C 
atom_frac            0.15000000           0.00000000           0.00000000 C 
atom_frac            0.16666650           0.03333335           0.00000000 C 
atom_frac            0.15000000           0.05000000           0.00000000 C 
atom_frac            0.16666650           0.08333350           0.00000000 C 
atom_frac            0.15000000           0.10000000           0.00000000 C 
atom_frac            0.16666650           0.13333350           0.00000000 C 
atom_frac            0.15000000           0.15000000           0.00000000 C 
atom_frac            0.16666650           0.18333350           0.00000000 C 
atom_frac            0.15000000           0.20000000           0.00000000 C 
atom_frac            0.16666650           0.23333350           0.00000000 C 
atom_frac            0.15000000           0.25000000           0.00000000 C 
atom_frac            0.16666650           0.28333350           0.00000000 C 
atom_frac            0.15000000           0.30000000           0.00000000 C 
atom_frac            0.16666650           0.33333350           0.00000000 C 
atom_frac            0.15000000           0.35000000           0.00000000 C 
atom_frac            0.16666650           0.38333350           0.00000000 C 
atom_frac            0.15000000           0.40000000           0.00000000 C 
atom_frac            0.16666650           0.43333350           0.00000000 C 
atom_frac            0.20000000           0.45000000           0.00000000 C 
atom_frac            0.21666650           0.48333350           0.00000000 C 
atom_frac            0.20000000           0.00000000           0.00000000 C 
atom_frac            0.21666650           0.03333335           0.00000000 C 
atom_frac            0.20000000           0.05000000           0.00000000 C 
atom_frac            0.21666650           0.08333350           0.00000000 C 
atom_frac            0.20000000           0.10000000           0.00000000 C 
atom_frac            0.21666650           0.13333350           0.00000000 C 
atom_frac            0.20000000           0.15000000           0.00000000 C 
atom_frac            0.21666650           0.18333350           0.00000000 C 
atom_frac            0.20000000           0.20000000           0.00000000 C 
atom_frac            0.21666650           0.23333350           0.00000000 C 
atom_frac            0.20000000           0.25000000           0.00000000 C 
atom_frac            0.21666650           0.28333350           0.00000000 C 
atom_frac            0.20000000           0.30000000           0.00000000 C 
atom_frac            0.21666650           0.33333350           0.00000000 C 
atom_frac            0.20000000           0.35000000           0.00000000 C 
atom_frac            0.21666650           0.38333350           0.00000000 C 
atom_frac            0.20000000           0.40000000           0.00000000 C 
atom_frac            0.21666650           0.43333350           0.00000000 C 
atom_frac            0.25000000           0.45000000           0.00000000 C 
atom_frac            0.26666650           0.48333350           0.00000000 C 
atom_frac            0.25000000           0.00000000           0.00000000 C 
atom_frac            0.26666650           0.03333335           0.00000000 C 
atom_frac            0.25000000           0.05000000           0.00000000 C 
atom_frac            0.26666650           0.08333350           0.00000000 C 
atom_frac            0.25000000           0.10000000           0.00000000 C 
atom_frac            0.26666650           0.13333350           0.00000000 C 
atom_frac            0.25000000           0.15000000           0.00000000 C 
atom_frac            0.26666650           0.18333350           0.00000000 C 
atom_frac            0.25000000           0.20000000           0.00000000 C 
atom_frac            0.26666650           0.23333350           0.00000000 C 
atom_frac            0.25000000           0.25000000           0.00000000 C 
atom_frac            0.26666650           0.28333350           0.00000000 C 
atom_frac            0.25000000           0.30000000           0.00000000 C 
atom_frac            0.26666650           0.33333350           0.00000000 C 
atom_frac            0.25000000           0.35000000           0.00000000 C 
atom_frac            0.26666650           0.38333350           0.00000000 C 
atom_frac            0.25000000           0.40000000           0.00000000 C 
atom_frac            0.26666650           0.43333350           0.00000000 C 
atom_frac            0.30000000           0.45000000           0.00000000 C 
atom_frac            0.31666650           0.48333350           0.00000000 C 
atom_frac            0.30000000           0.00000000           0.00000000 C 
atom_frac            0.31666650           0.03333335           0.00000000 C 
atom_frac            0.30000000           0.05000000           0.00000000 C 
atom_frac            0.31666650           0.08333350           0.00000000 C 
atom_frac            0.30000000           0.10000000           0.00000000 C 
atom_frac            0.31666650           0.13333350           0.00000000 C 
atom_frac            0.30000000           0.15000000           0.00000000 C 
atom_frac            0.31666650           0.18333350           0.00000000 C 
atom_frac            0.30000000           0.20000000           0.00000000 C 
atom_frac            0.31666650           0.23333350           0.00000000 C 
atom_frac            0.30000000           0.25000000           0.00000000 C 
atom_frac            0.31666650           0.28333350           0.00000000 C 
atom_frac            0.30000000           0.30000000           0.00000000 C 
atom_frac            0.31666650           0.33333350           0.00000000 C 
atom_frac            0.30000000           0.35000000           0.00000000 C 
atom_frac            0.31666650           0.38333350           0.00000000 C 
atom_frac            0.30000000           0.40000000           0.00000000 C 
atom_frac            0.31666650           0.43333350           0.00000000 C 
atom_frac            0.35000000           0.45000000           0.00000000 C 
atom_frac            0.36666650           0.48333350           0.00000000 C 
atom_frac            0.35000000           0.00000000           0.00000000 C 
atom_frac            0.36666650           0.03333335           0.00000000 C 
atom_frac            0.35000000           0.05000000           0.00000000 C 
atom_frac            0.36666650           0.08333350           0.00000000 C 
atom_frac            0.35000000           0.10000000           0.00000000 C 
atom_frac            0.36666650           0.13333350           0.00000000 C 
atom_frac            0.35000000           0.15000000           0.00000000 C 
atom_frac            0.36666650           0.18333350           0.00000000 C 
atom_frac            0.35000000           0.20000000           0.00000000 C 
atom_frac            0.36666650           0.23333350           0.00000000 C 
atom_frac            0.35000000           0.25000000           0.00000000 C 
atom_frac            0.36666650           0.28333350           0.00000000 C 
atom_frac            0.35000000           0.30000000           0.00000000 C 
atom_frac            0.36666650           0.33333350           0.00000000 C 
atom_frac            0.35000000           0.35000000           0.00000000 C 
atom_frac            0.36666650           0.38333350           0.00000000 C 
atom_frac            0.35000000           0.40000000           0.00000000 C 
atom_frac            0.36666650           0.43333350           0.00000000 C 
atom_frac            0.40000000           0.45000000           0.00000000 C 
atom_frac            0.41666650           0.48333350           0.00000000 C 
atom_frac            0.40000000           0.00000000           0.00000000 C 
atom_frac            0.41666650           0.03333335           0.00000000 C 
atom_frac            0.40000000           0.05000000           0.00000000 C 
atom_frac            0.41666650           0.08333350           0.00000000 C 
atom_frac            0.40000000           0.10000000           0.00000000 C 
atom_frac            0.41666650           0.13333350           0.00000000 C 
atom_frac            0.40000000           0.15000000           0.00000000 C 
atom_frac            0.41666650           0.18333350           0.00000000 C 
atom_frac            0.40000000           0.20000000           0.00000000 C 
atom_frac            0.41666650           0.23333350           0.00000000 C 
atom_frac            0.40000000           0.25000000           0.00000000 C 
atom_frac            0.41666650           0.28333350           0.00000000 C 
atom_frac            0.40000000           0.30000000           0.00000000 C 
atom_frac            0.41666650           0.33333350           0.00000000 C 
atom_frac            0.40000000           0.35000000           0.00000000 C 
atom_frac            0.41666650           0.38333350           0.00000000 C 
atom_frac            0.40000000           0.40000000           0.00000000 C 
atom_frac            0.41666650           0.43333350           0.00000000 C 
atom_frac            0.45000000           0.45000000           0.00000000 C 
atom_frac            0.46666650           0.48333350           0.00000000 C 
atom_frac            0.45000000          -0.00000000           0.00000000 C 
atom_frac            0.46666650           0.03333335           0.00000000 C 
atom_frac            0.45000000           0.05000000           0.00000000 C 
atom_frac            0.46666650           0.08333350           0.00000000 C 
atom_frac            0.45000000           0.10000000           0.00000000 C 
atom_frac            0.46666650           0.13333350           0.00000000 C 
atom_frac            0.45000000           0.15000000           0.00000000 C 
atom_frac            0.46666650           0.18333350           0.00000000 C 
atom_frac            0.45000000           0.20000000           0.00000000 C 
atom_frac            0.46666650           0.23333350           0.00000000 C 
atom_frac            0.45000000           0.25000000           0.00000000 C 
atom_frac            0.46666650           0.28333350           0.00000000 C 
atom_frac            0.45000000           0.30000000           0.00000000 C 
atom_frac            0.46666650           0.33333350           0.00000000 C 
atom_frac            0.45000000           0.35000000           0.00000000 C 
atom_frac            0.46666650           0.38333350           0.00000000 C 
atom_frac            0.45000000           0.40000000           0.00000000 C 
atom_frac            0.46666650           0.43333350           0.00000000 C 
atom_frac            0.00000000           0.95000000           0.00000000 C 
atom_frac            0.01666665           0.98333350           0.00000000 C 
atom_frac            0.00000000           0.50000000           0.00000000 C 
atom_frac            0.01666665           0.53333335           0.00000000 C 
atom_frac            0.00000000           0.55000000           0.00000000 C 
atom_frac            0.01666665           0.58333350           0.00000000 C 
atom_frac            0.00000000           0.60000000           0.00000000 C 
atom_frac            0.01666665           0.63333350           0.00000000 C 
atom_frac            0.00000000           0.65000000           0.00000000 C 
atom_frac            0.01666665           0.68333350           0.00000000 C 
atom_frac            0.00000000           0.70000000           0.00000000 C 
atom_frac            0.01666665           0.73333350           0.00000000 C 
atom_frac            0.00000000           0.75000000           0.00000000 C 
atom_frac            0.01666665           0.78333350           0.00000000 C 
atom_frac            0.00000000           0.80000000           0.00000000 C 
atom_frac            0.01666665           0.83333350           0.00000000 C 
atom_frac            0.00000000           0.85000000           0.00000000 C 
atom_frac            0.01666665           0.88333350           0.00000000 C 
atom_frac            0.00000000           0.90000000           0.00000000 C 
atom_frac            0.01666665           0.93333350           0.00000000 C 
atom_frac            0.05000000           0.95000000           0.00000000 C 
atom_frac            0.06666650           0.98333350           0.00000000 C 
atom_frac            0.05000000           0.50000000           0.00000000 C 
atom_frac            0.06666650           0.53333335           0.00000000 C 
atom_frac            0.05000000           0.55000000           0.00000000 C 
atom_frac            0.06666650           0.58333350           0.00000000 C 
atom_frac            0.05000000           0.60000000           0.00000000 C 
atom_frac            0.06666650           0.63333350           0.00000000 C 
atom_frac            0.05000000           0.65000000           0.00000000 C 
atom_frac            0.06666650           0.68333350           0.00000000 C 
atom_frac            0.05000000           0.70000000           0.00000000 C 
atom_frac            0.06666650           0.73333350           0.00000000 C 
atom_frac            0.05000000           0.75000000           0.00000000 C 
atom_frac            0.06666650           0.78333350           0.00000000 C 
atom_frac            0.05000000           0.80000000           0.00000000 C 
atom_frac            0.06666650           0.83333350           0.00000000 C 
atom_frac            0.05000000           0.85000000           0.00000000 C 
atom_frac            0.06666650           0.88333350           0.00000000 C 
atom_frac            0.05000000           0.90000000           0.00000000 C 
atom_frac            0.06666650           0.93333350           0.00000000 C 
atom_frac            0.10000000           0.95000000           0.00000000 C 
atom_frac            0.11666650           0.98333350           0.00000000 C 
atom_frac            0.10000000           0.50000000           0.00000000 C 
atom_frac            0.11666650           0.53333335           0.00000000 C 
atom_frac            0.10000000           0.55000000           0.00000000 C 
atom_frac            0.11666650           0.58333350           0.00000000 C 
atom_frac            0.10000000           0.60000000           0.00000000 C 
atom_frac            0.11666650           0.63333350           0.00000000 C 
atom_frac            0.10000000           0.65000000           0.00000000 C 
atom_frac            0.11666650           0.68333350           0.00000000 C 
atom_frac            0.10000000           0.70000000           0.00000000 C 
atom_frac            0.11666650           0.73333350           0.00000000 C 
atom_frac            0.10000000           0.75000000           0.00000000 C 
atom_frac            0.11666650           0.78333350           0.00000000 C 
atom_frac            0.10000000           0.80000000           0.00000000 C 
atom_frac            0.11666650           0.83333350           0.00000000 C 
atom_frac            0.10000000           0.85000000           0.00000000 C 
atom_frac            0.11666650           0.88333350           0.00000000 C 
atom_frac            0.10000000           0.90000000           0.00000000 C 
atom_frac            0.11666650           0.93333350           0.00000000 C 
atom_frac            0.15000000           0.95000000           0.00000000 C 
atom_frac            0.16666650           0.98333350           0.00000000 C 
atom_frac            0.15000000           0.50000000           0.00000000 C 
atom_frac            0.16666650           0.53333335           0.00000000 C 
atom_frac            0.15000000           0.55000000           0.00000000 C 
atom_frac            0.16666650           0.58333350           0.00000000 C 
atom_frac            0.15000000           0.60000000           0.00000000 C 
atom_frac            0.16666650           0.63333350           0.00000000 C 
atom_frac            0.15000000           0.65000000           0.00000000 C 
atom_frac            0.16666650           0.68333350           0.00000000 C 
atom_frac            0.15000000           0.70000000           0.00000000 C 
atom_frac            0.16666650           0.73333350           0.00000000 C 
atom_frac            0.15000000           0.75000000           0.00000000 C 
atom_frac            0.16666650           0.78333350           0.00000000 C 
atom_frac            0.15000000           0.80000000           0.00000000 C 
atom_frac            0.16666650           0.83333350           0.00000000 C 
atom_frac            0.15000000           0.85000000           0.00000000 C 
atom_frac            0.16666650           0.88333350           0.00000000 C 
atom_frac            0.15000000           0.90000000           0.00000000 C 
atom_frac            0.16666650           0.93333350           0.00000000 C 
atom_frac            0.20000000           0.95000000           0.00000000 C 
atom_frac            0.21666650           0.98333350           0.00000000 C 
atom_frac            0.20000000           0.50000000           0.00000000 C 
atom_frac            0.21666650           0.53333335           0.00000000 C 
atom_frac            0.20000000           0.55000000           0.00000000 C 
atom_frac            0.21666650           0.58333350           0.00000000 C 
atom_frac            0.20000000           0.60000000           0.00000000 C 
atom_frac            0.21666650           0.63333350           0.00000000 C 
atom_frac            0.20000000           0.65000000           0.00000000 C 
atom_frac            0.21666650           0.68333350           0.00000000 C 
atom_frac            0.20000000           0.70000000           0.00000000 C 
atom_frac            0.21666650           0.73333350           0.00000000 C 
atom_frac            0.20000000           0.75000000           0.00000000 C 
atom_frac            0.21666650           0.78333350           0.00000000 C 
atom_frac            0.20000000           0.80000000           0.00000000 C 
atom_frac            0.21666650           0.83333350           0.00000000 C 
atom_frac            0.20000000           0.85000000           0.00000000 C 
atom_frac            0.21666650           0.88333350           0.00000000 C 
atom_frac            0.20000000           0.90000000           0.00000000 C 
atom_frac            0.21666650           0.93333350           0.00000000 C 
atom_frac            0.25000000           0.95000000           0.00000000 C 
atom_frac            0.26666650           0.98333350           0.00000000 C 
atom_frac            0.25000000           0.50000000           0.00000000 C 
atom_frac            0.26666650           0.53333335           0.00000000 C 
atom_frac            0.25000000           0.55000000           0.00000000 C 
atom_frac            0.26666650           0.58333350           0.00000000 C 
atom_frac            0.25000000           0.60000000           0.00000000 C 
atom_frac            0.26666650           0.63333350           0.00000000 C 
atom_frac            0.25000000           0.65000000           0.00000000 C 
atom_frac            0.26666650           0.68333350           0.00000000 C 
atom_frac            0.25000000           0.70000000           0.00000000 C 
atom_frac            0.26666650           0.73333350           0.00000000 C 
atom_frac            0.25000000           0.75000000           0.00000000 C 
atom_frac            0.26666650           0.78333350           0.00000000 C 
atom_frac            0.25000000           0.80000000           0.00000000 C 
atom_frac            0.26666650           0.83333350           0.00000000 C 
atom_frac            0.25000000           0.85000000           0.00000000 C 
atom_frac            0.26666650           0.88333350           0.00000000 C 
atom_frac            0.25000000           0.90000000           0.00000000 C 
atom_frac            0.26666650           0.93333350           0.00000000 C 
atom_frac            0.30000000           0.95000000           0.00000000 C 
atom_frac            0.31666650           0.98333350           0.00000000 C 
atom_frac            0.30000000           0.50000000           0.00000000 C 
atom_frac            0.31666650           0.53333335           0.00000000 C 
atom_frac            0.30000000           0.55000000           0.00000000 C 
atom_frac            0.31666650           0.58333350           0.00000000 C 
atom_frac            0.30000000           0.60000000           0.00000000 C 
atom_frac            0.31666650           0.63333350           0.00000000 C 
atom_frac            0.30000000           0.65000000           0.00000000 C 
atom_frac            0.31666650           0.68333350           0.00000000 C 
atom_frac            0.30000000           0.70000000           0.00000000 C 
atom_frac            0.31666650           0.73333350           0.00000000 C 
atom_frac            0.30000000           0.75000000           0.00000000 C 
atom_frac            0.31666650           0.78333350           0.00000000 C 
atom_frac            0.30000000           0.80000000           0.00000000 C 
atom_frac            0.31666650           0.83333350           0.00000000 C 
atom_frac            0.30000000           0.85000000           0.00000000 C 
atom_frac            0.31666650           0.88333350           0.00000000 C 
atom_frac            0.30000000           0.90000000           0.00000000 C 
atom_frac            0.31666650           0.93333350           0.00000000 C 
atom_frac            0.35000000           0.95000000           0.00000000 C 
atom_frac            0.36666650           0.98333350           0.00000000 C 
atom_frac            0.35000000           0.50000000           0.00000000 C 
atom_frac            0.36666650           0.53333335           0.00000000 C 
atom_frac            0.35000000           0.55000000           0.00000000 C 
atom_frac            0.36666650           0.58333350           0.00000000 C 
atom_frac            0.35000000           0.60000000           0.00000000 C 
atom_frac            0.36666650           0.63333350           0.00000000 C 
atom_frac            0.35000000           0.65000000           0.00000000 C 
atom_frac            0.36666650           0.68333350           0.00000000 C 
atom_frac            0.35000000           0.70000000           0.00000000 C 
atom_frac            0.36666650           0.73333350           0.00000000 C 
atom_frac            0.35000000           0.75000000           0.00000000 C 
atom_frac            0.36666650           0.78333350           0.00000000 C 
atom_frac            0.35000000           0.80000000           0.00000000 C 
atom_frac            0.36666650           0.83333350           0.00000000 C 
atom_frac            0.35000000           0.85000000           0.00000000 C 
atom_frac            0.36666650           0.88333350           0.00000000 C 
atom_frac            0.35000000           0.90000000           0.00000000 C 
atom_frac            0.36666650           0.93333350           0.00000000 C 
atom_frac            0.40000000           0.95000000           0.00000000 C 
atom_frac            0.41666650           0.98333350           0.00000000 C 
atom_frac            0.40000000           0.50000000           0.00000000 C 
atom_frac            0.41666650           0.53333335           0.00000000 C 
atom_frac            0.40000000           0.55000000           0.00000000 C 
atom_frac            0.41666650           0.58333350           0.00000000 C 
atom_frac            0.40000000           0.60000000           0.00000000 C 
atom_frac            0.41666650           0.63333350           0.00000000 C 
atom_frac            0.40000000           0.65000000           0.00000000 C 
atom_frac            0.41666650           0.68333350           0.00000000 C 
atom_frac            0.40000000           0.70000000           0.00000000 C 
atom_frac            0.41666650           0.73333350           0.00000000 C 
atom_frac            0.40000000           0.75000000           0.00000000 C 
atom_frac            0.41666650           0.78333350           0.00000000 C 
atom_frac            0.40000000           0.80000000           0.00000000 C 
atom_frac            0.41666650           0.83333350           0.00000000 C 
atom_frac            0.40000000           0.85000000           0.00000000 C 
atom_frac            0.41666650           0.88333350           0.00000000 C 
atom_frac            0.40000000           0.90000000           0.00000000 C 
atom_frac            0.41666650           0.93333350           0.00000000 C 
atom_frac            0.45000000           0.95000000           0.00000000 C 
atom_frac            0.46666650           0.98333350           0.00000000 C 
atom_frac            0.45000000           0.50000000           0.00000000 C 
atom_frac            0.46666650           0.53333335           0.00000000 C 
atom_frac            0.45000000           0.55000000           0.00000000 C 
atom_frac            0.46666650           0.58333350           0.00000000 C 