lattice_vector           24.61200000         -42.62920000           0.00000000
lattice_vector           24.61200000          42.62920000           0.00000000
lattice_vector            0.00000000           0.00000000          25.00000000

atom_frac            0.01666667           0.03333333           0.00000000 C 
atom_frac            0.03333333           0.01666667           0.00000000 C 
atom_frac            0.01666667           0.08333333           0.00000000 C 
atom_frac            0.03333333           0.06666667           0.00000000 C 
atom_frac            0.01666667           0.13333333           0.00000000 C 
atom_frac            0.03333333           0.11666667           0.00000000 C 
atom_frac            0.01666667           0.18333333           0.00000000 C 
atom_frac            0.03333333           0.16666667           0.00000000 C 
atom_frac            0.01666667           0.23333333           0.00000000 C 
atom_frac            0.03333333           0.21666667           0.00000000 C 
atom_frac            0.01666667           0.28333333           0.00000000 C 
atom_frac            0.03333333           0.26666667           0.00000000 C 
atom_frac            0.01666667           0.33333333           0.00000000 C 
atom_frac            0.03333333           0.31666667           0.00000000 C 
atom_frac            0.01666667           0.38333333           0.00000000 C 
atom_frac            0.03333333           0.36666667           0.00000000 C 
atom_frac            0.01666667           0.43333333           0.00000000 C 
atom_frac            0.03333333           0.41666667           0.00000000 C 
atom_frac            0.01666667           0.48333333           0.00000000 C 
atom_frac            0.03333333           0.46666667           0.00000000 C 
atom_frac            0.01666667           0.53333333           0.00000000 C 
atom_frac            0.03333333           0.51666667           0.00000000 C 
atom_frac            0.01666667           0.58333333           0.00000000 C 
atom_frac            0.03333333           0.56666667           0.00000000 C 
atom_frac            0.01666667           0.63333333           0.00000000 C 
atom_frac            0.03333333           0.61666667           0.00000000 C 
atom_frac            0.01666667           0.68333333           0.00000000 C 
atom_frac            0.03333333           0.66666667           0.00000000 C 
atom_frac            0.01666667           0.73333333           0.00000000 C 
atom_frac            0.03333333           0.71666667           0.00000000 C 
atom_frac            0.01666667           0.78333333           0.00000000 C 
atom_frac            0.03333333           0.76666667           0.00000000 C 
atom_frac            0.01666667           0.83333333           0.00000000 C 
atom_frac            0.03333333           0.81666667           0.00000000 C 
atom_frac            0.01666667           0.88333333           0.00000000 C 
atom_frac            0.03333333           0.86666667           0.00000000 C 
atom_frac            0.01666667           0.93333333           0.00000000 C 
atom_frac            0.03333333           0.91666667           0.00000000 C 
atom_frac            0.01666667           0.98333333           0.00000000 C 
atom_frac            0.03333333           0.96666667           0.00000000 C 
atom_frac            0.06666667           0.03333333           0.00000000 C 
atom_frac            0.08333333           0.01666667           0.00000000 C 
atom_frac            0.06666667           0.08333333           0.00000000 C 
atom_frac            0.08333333           0.06666667           0.00000000 C 
atom_frac            0.06666667           0.13333333           0.00000000 C 
atom_frac            0.08333333           0.11666667           0.00000000 C 
atom_frac            0.06666667           0.18333333           0.00000000 C 
atom_frac            0.08333333           0.16666667           0.00000000 C 
atom_frac            0.06666667           0.23333333           0.00000000 C 
atom_frac            0.08333333           0.21666667           0.00000000 C 
atom_frac            0.06666667           0.28333333           0.00000000 C 
atom_frac            0.08333333           0.26666667           0.00000000 C 
atom_frac            0.06666667           0.33333333           0.00000000 C 
atom_frac            0.08333333           0.31666667           0.00000000 C 
atom_frac            0.06666667           0.38333333           0.00000000 C 
atom_frac            0.08333333           0.36666667           0.00000000 C 
atom_frac            0.06666667           0.43333333           0.00000000 C 
atom_frac            0.08333333           0.41666667           0.00000000 C 
atom_frac            0.06666667           0.48333333           0.00000000 C 
atom_frac            0.08333333           0.46666667           0.00000000 C 
atom_frac            0.06666667           0.53333333           0.00000000 C 
atom_frac            0.08333333           0.51666667           0.00000000 C 
atom_frac            0.06666667           0.58333333           0.00000000 C 
atom_frac            0.08333333           0.56666667           0.00000000 C 
atom_frac            0.06666667           0.63333333           0.00000000 C 
atom_frac            0.08333333           0.61666667           0.00000000 C 
atom_frac            0.06666667           0.68333333           0.00000000 C 
atom_frac            0.08333333           0.66666667           0.00000000 C 
atom_frac            0.06666667           0.73333333           0.00000000 C 
atom_frac            0.08333333           0.71666667           0.00000000 C 
atom_frac            0.06666667           0.78333333           0.00000000 C 
atom_frac            0.08333333           0.76666667           0.00000000 C 
atom_frac            0.06666667           0.83333333           0.00000000 C 
atom_frac            0.08333333           0.81666667           0.00000000 C 
atom_frac            0.06666667           0.88333333           0.00000000 C 
atom_frac            0.08333333           0.86666667           0.00000000 C 
atom_frac            0.06666667           0.93333333           0.00000000 C 
atom_frac            0.08333333           0.91666667           0.00000000 C 
atom_frac            0.06666667           0.98333333           0.00000000 C 
atom_frac            0.08333333           0.96666667           0.00000000 C 
atom_frac            0.11666667           0.03333333           0.00000000 C 
atom_frac            0.13333333           0.01666667           0.00000000 C 
atom_frac            0.11666667           0.08333333           0.00000000 C 
atom_frac            0.13333333           0.06666667           0.00000000 C 
atom_frac            0.11666667           0.13333333           0.00000000 C 
atom_frac            0.13333333           0.11666667           0.00000000 C 
atom_frac            0.11666667           0.18333333           0.00000000 C 
atom_frac            0.13333333           0.16666667           0.00000000 C 
atom_frac            0.11666667           0.23333333           0.00000000 C 
atom_frac            0.13333333           0.21666667           0.00000000 C 
atom_frac            0.11666667           0.28333333           0.00000000 C 
atom_frac            0.13333333           0.26666667           0.00000000 C 
atom_frac            0.11666667           0.33333333           0.00000000 C 
atom_frac            0.13333333           0.31666667           0.00000000 C 
atom_frac            0.11666667           0.38333333           0.00000000 C 
atom_frac            0.13333333           0.36666667           0.00000000 C 
atom_frac            0.11666667           0.43333333           0.00000000 C 
atom_frac            0.13333333           0.41666667           0.00000000 C 
atom_frac            0.11666667           0.48333333           0.00000000 C 
atom_frac            0.13333333           0.46666667           0.00000000 C 
atom_frac            0.11666667           0.53333333           0.00000000 C 
atom_frac            0.13333333           0.51666667           0.00000000 C 
atom_frac            0.11666667           0.58333333           0.00000000 C 
atom_frac            0.13333333           0.56666667           0.00000000 C 
atom_frac            0.11666667           0.63333333           0.00000000 C 
atom_frac            0.13333333           0.61666667           0.00000000 C 
atom_frac            0.11666667           0.68333333           0.00000000 C 
atom_frac            0.13333333           0.66666667           0.00000000 C 
atom_frac            0.11666667           0.73333333           0.00000000 C 
atom_frac            0.13333333           0.71666667           0.00000000 C 
atom_frac            0.11666667           0.78333333           0.00000000 C 
atom_frac            0.13333333           0.76666667           0.00000000 C 
atom_frac            0.11666667           0.83333333           0.00000000 C 
atom_frac            0.13333333           0.81666667           0.00000000 C 
atom_frac            0.11666667           0.88333333           0.00000000 C 
atom_frac            0.13333333           0.86666667           0.00000000 C 
atom_frac            0.11666667           0.93333333           0.00000000 C 
atom_frac            0.13333333           0.91666667           0.00000000 C 
atom_frac            0.11666667           0.98333333           0.00000000 C 
atom_frac            0.13333333           0.96666667           0.00000000 C 
atom_frac            0.16666667           0.03333333           0.00000000 C 
atom_frac            0.18333333           0.01666667           0.00000000 C 
atom_frac            0.16666667           0.08333333           0.00000000 C 
atom_frac            0.18333333           0.06666667           0.00000000 C 
atom_frac            0.16666667           0.13333333           0.00000000 C 
atom_frac            0.18333333           0.11666667           0.00000000 C 
atom_frac            0.16666667           0.18333333           0.00000000 C 
atom_frac            0.18333333           0.16666667           0.00000000 C 
atom_frac            0.16666667           0.23333333           0.00000000 C 
atom_frac            0.18333333           0.21666667           0.00000000 C 
atom_frac            0.16666667           0.28333333           0.00000000 C 
atom_frac            0.18333333           0.26666667           0.00000000 C 
atom_frac            0.16666667           0.33333333           0.00000000 C 
atom_frac            0.18333333           0.31666667           0.00000000 C 
atom_frac            0.16666667           0.38333333           0.00000000 C 
atom_frac            0.18333333           0.36666667           0.00000000 C 
atom_frac            0.16666667           0.43333333           0.00000000 C 
atom_frac            0.18333333           0.41666667           0.00000000 C 
atom_frac            0.16666667           0.48333333           0.00000000 C 
atom_frac            0.18333333           0.46666667           0.00000000 C 
atom_frac            0.16666667           0.53333333           0.00000000 C 
atom_frac            0.18333333           0.51666667           0.00000000 C 
atom_frac            0.16666667           0.58333333           0.00000000 C 
atom_frac            0.18333333           0.56666667           0.00000000 C 
atom_frac            0.16666667           0.63333333           0.00000000 C 
atom_frac            0.18333333           0.61666667           0.00000000 C 
atom_frac            0.16666667           0.68333333           0.00000000 C 
atom_frac            0.18333333           0.66666667           0.00000000 C 
atom_frac            0.16666667           0.73333333           0.00000000 C 
atom_frac            0.18333333           0.71666667           0.00000000 C 
atom_frac            0.16666667           0.78333333           0.00000000 C 
atom_frac            0.18333333           0.76666667           0.00000000 C 
atom_frac            0.16666667           0.83333333           0.00000000 C 
atom_frac            0.18333333           0.81666667           0.00000000 C 
atom_frac            0.16666667           0.88333333           0.00000000 C 
atom_frac            0.18333333           0.86666667           0.00000000 C 
atom_frac            0.16666667           0.93333333           0.00000000 C 
atom_frac            0.18333333           0.91666667           0.00000000 C 
atom_frac            0.16666667           0.98333333           0.00000000 C 
atom_frac            0.18333333           0.96666667           0.00000000 C 
atom_frac            0.21666667           0.03333333           0.00000000 C 
atom_frac            0.23333333           0.01666667           0.00000000 C 
atom_frac            0.21666667           0.08333333           0.00000000 C 
atom_frac            0.23333333           0.06666667           0.00000000 C 
atom_frac            0.21666667           0.13333333           0.00000000 C 
atom_frac            0.23333333           0.11666667           0.00000000 C 
atom_frac            0.21666667           0.18333333           0.00000000 C 
atom_frac            0.23333333           0.16666667           0.00000000 C 
atom_frac            0.21666667           0.23333333           0.00000000 C 
atom_frac            0.23333333           0.21666667           0.00000000 C 
atom_frac            0.21666667           0.28333333           0.00000000 C 
atom_frac            0.23333333           0.26666667           0.00000000 C 
atom_frac            0.21666667           0.33333333           0.00000000 C 
atom_frac            0.23333333           0.31666667           0.00000000 C 
atom_frac            0.21666667           0.38333333           0.00000000 C 
atom_frac            0.23333333           0.36666667           0.00000000 C 
atom_frac            0.21666667           0.43333333           0.00000000 C 
atom_frac            0.23333333           0.41666667           0.00000000 C 
atom_frac            0.21666667           0.48333333           0.00000000 C 
atom_frac            0.23333333           0.46666667           0.00000000 C 
atom_frac            0.21666667           0.53333333           0.00000000 C 
atom_frac            0.23333333           0.51666667           0.00000000 C 
atom_frac            0.21666667           0.58333333           0.00000000 C 
atom_frac            0.23333333           0.56666667           0.00000000 C 
atom_frac            0.21666667           0.63333333           0.00000000 C 
atom_frac            0.23333333           0.61666667           0.00000000 C 
atom_frac            0.21666667           0.68333333           0.00000000 C 
atom_frac            0.23333333           0.66666667           0.00000000 C 
atom_frac            0.21666667           0.73333333           0.00000000 C 
atom_frac            0.23333333           0.71666667           0.00000000 C 
atom_frac            0.21666667           0.78333333           0.00000000 C 
atom_frac            0.23333333           0.76666667           0.00000000 C 
atom_frac            0.21666667           0.83333333           0.00000000 C 
atom_frac            0.23333333           0.81666667           0.00000000 C 
atom_frac            0.21666667           0.88333333           0.00000000 C 
atom_frac            0.23333333           0.86666667           0.00000000 C 
atom_frac            0.21666667           0.93333333           0.00000000 C 
atom_frac            0.23333333           0.91666667           0.00000000 C 
atom_frac            0.21666667           0.98333333           0.00000000 C 
atom_frac            0.23333333           0.96666667           0.00000000 C 
atom_frac            0.26666667           0.03333333           0.00000000 C 
atom_frac            0.28333333           0.01666667           0.00000000 C 
atom_frac            0.26666667           0.08333333           0.00000000 C 
atom_frac            0.28333333           0.06666667           0.00000000 C 
atom_frac            0.26666667           0.13333333           0.00000000 C 
atom_frac            0.28333333           0.11666667           0.00000000 C 
atom_frac            0.26666667           0.18333333           0.00000000 C 
atom_frac            0.28333333           0.16666667           0.00000000 C 
atom_frac            0.26666667           0.23333333           0.00000000 C 
atom_frac            0.28333333           0.21666667           0.00000000 C 
atom_frac            0.26666667           0.28333333           0.00000000 C 
atom_frac            0.28333333           0.26666667           0.00000000 C 
atom_frac            0.26666667           0.33333333           0.00000000 C 
atom_frac            0.28333333           0.31666667           0.00000000 C 
atom_frac            0.26666667           0.38333333           0.00000000 C 
atom_frac            0.28333333           0.36666667           0.00000000 C 
atom_frac            0.26666667           0.43333333           0.00000000 C 
atom_frac            0.28333333           0.41666667           0.00000000 C 
atom_frac            0.26666667           0.48333333           0.00000000 C 
atom_frac            0.28333333           0.46666667           0.00000000 C 
atom_frac            0.26666667           0.53333333           0.00000000 C 
atom_frac            0.28333333           0.51666667           0.00000000 C 
atom_frac            0.26666667           0.58333333           0.00000000 C 
atom_frac            0.28333333           0.56666667           0.00000000 C 
atom_frac            0.26666667           0.63333333           0.00000000 C 
atom_frac            0.28333333           0.61666667           0.00000000 C 
atom_frac            0.26666667           0.68333333           0.00000000 C 
atom_frac            0.28333333           0.66666667           0.00000000 C 
atom_frac            0.26666667           0.73333333           0.00000000 C 
atom_frac            0.28333333           0.71666667           0.00000000 C 
atom_frac            0.26666667           0.78333333           0.00000000 C 
atom_frac            0.28333333           0.76666667           0.00000000 C 
atom_frac            0.26666667           0.83333333           0.00000000 C 
atom_frac            0.28333333           0.81666667           0.00000000 C 
atom_frac            0.26666667           0.88333333           0.00000000 C 
atom_frac            0.28333333           0.86666667           0.00000000 C 
atom_frac            0.26666667           0.93333333           0.00000000 C 
atom_frac            0.28333333           0.91666667           0.00000000 C 
atom_frac            0.26666667           0.98333333           0.00000000 C 
atom_frac            0.28333333           0.96666667           0.00000000 C 
atom_frac            0.31666667           0.03333333           0.00000000 C 
atom_frac            0.33333333           0.01666667           0.00000000 C 
atom_frac            0.31666667           0.08333333           0.00000000 C 
atom_frac            0.33333333           0.06666667           0.00000000 C 
atom_frac            0.31666667           0.13333333           0.00000000 C 
atom_frac            0.33333333           0.11666667           0.00000000 C 
atom_frac            0.31666667           0.18333333           0.00000000 C 
atom_frac            0.33333333           0.16666667           0.00000000 C 
atom_frac            0.31666667           0.23333333           0.00000000 C 
atom_frac            0.33333333           0.21666667           0.00000000 C 
atom_frac            0.31666667           0.28333333           0.00000000 C 
atom_frac            0.33333333           0.26666667           0.00000000 C 
atom_frac            0.31666667           0.33333333           0.00000000 C 
atom_frac            0.33333333           0.31666667           0.00000000 C 
atom_frac            0.31666667           0.38333333           0.00000000 C 
atom_frac            0.33333333           0.36666667           0.00000000 C 
atom_frac            0.31666667           0.43333333           0.00000000 C 
atom_frac            0.33333333           0.41666667           0.00000000 C 
atom_frac            0.31666667           0.48333333           0.00000000 C 
atom_frac            0.33333333           0.46666667           0.00000000 C 
atom_frac            0.31666667           0.53333333           0.00000000 C 
atom_frac            0.33333333           0.51666667           0.00000000 C 
atom_frac            0.31666667           0.58333333           0.00000000 C 
atom_frac            0.33333333           0.56666667           0.00000000 C 
atom_frac            0.31666667           0.63333333           0.00000000 C 
atom_frac            0.33333333           0.61666667           0.00000000 C 
atom_frac            0.31666667           0.68333333           0.00000000 C 
atom_frac            0.33333333           0.66666667           0.00000000 C 
atom_frac            0.31666667           0.73333333           0.00000000 C 
atom_frac            0.33333333           0.71666667           0.00000000 C 
atom_frac            0.31666667           0.78333333           0.00000000 C 
atom_frac            0.33333333           0.76666667           0.00000000 C 
atom_frac            0.31666667           0.83333333           0.00000000 C 
atom_frac            0.33333333           0.81666667           0.00000000 C 
atom_frac            0.31666667           0.88333333           0.00000000 C 
atom_frac            0.33333333           0.86666667           0.00000000 C 
atom_frac            0.31666667           0.93333333           0.00000000 C 
atom_frac            0.33333333           0.91666667           0.00000000 C 
atom_frac            0.31666667           0.98333333           0.00000000 C 
atom_frac            0.33333333           0.96666667           0.00000000 C 
atom_frac            0.36666667           0.03333333           0.00000000 C 
atom_frac            0.38333333           0.01666667           0.00000000 C 
atom_frac            0.36666667           0.08333333           0.00000000 C 
atom_frac            0.38333333           0.06666667           0.00000000 C 
atom_frac            0.36666667           0.13333333           0.00000000 C 
atom_frac            0.38333333           0.11666667           0.00000000 C 
atom_frac            0.36666667           0.18333333           0.00000000 C 
atom_frac            0.38333333           0.16666667           0.00000000 C 
atom_frac            0.36666667           0.23333333           0.00000000 C 
atom_frac            0.38333333           0.21666667           0.00000000 C 
atom_frac            0.36666667           0.28333333           0.00000000 C 
atom_frac            0.38333333           0.26666667           0.00000000 C 
atom_frac            0.36666667           0.33333333           0.00000000 C 
atom_frac            0.38333333           0.31666667           0.00000000 C 
atom_frac            0.36666667           0.38333333           0.00000000 C 
atom_frac            0.38333333           0.36666667           0.00000000 C 
atom_frac            0.36666667           0.43333333           0.00000000 C 
atom_frac            0.38333333           0.41666667           0.00000000 C 
atom_frac            0.36666667           0.48333333           0.00000000 C 
atom_frac            0.38333333           0.46666667           0.00000000 C 
atom_frac            0.36666667           0.53333333           0.00000000 C 
atom_frac            0.38333333           0.51666667           0.00000000 C 
atom_frac            0.36666667           0.58333333           0.00000000 C 
atom_frac            0.38333333           0.56666667           0.00000000 C 
atom_frac            0.36666667           0.63333333           0.00000000 C 
atom_frac            0.38333333           0.61666667           0.00000000 C 
atom_frac            0.36666667           0.68333333           0.00000000 C 
atom_frac            0.38333333           0.66666667           0.00000000 C 
atom_frac            0.36666667           0.73333333           0.00000000 C 
atom_frac            0.38333333           0.71666667           0.00000000 C 
atom_frac            0.36666667           0.78333333           0.00000000 C 
atom_frac            0.38333333           0.76666667           0.00000000 C 
atom_frac            0.36666667           0.83333333           0.00000000 C 
atom_frac            0.38333333           0.81666667           0.00000000 C 
atom_frac            0.36666667           0.88333333           0.00000000 C 
atom_frac            0.38333333           0.86666667           0.00000000 C 
atom_frac            0.36666667           0.93333333           0.00000000 C 
atom_frac            0.38333333           0.91666667           0.00000000 C 
atom_frac            0.36666667           0.98333333           0.00000000 C 
atom_frac            0.38333333           0.96666667           0.00000000 C 
atom_frac            0.41666667           0.03333333           0.00000000 C 
atom_frac            0.43333333           0.01666667           0.00000000 C 
atom_frac            0.41666667           0.08333333           0.00000000 C 
atom_frac            0.43333333           0.06666667           0.00000000 C 
atom_frac            0.41666667           0.13333333           0.00000000 C 
atom_frac            0.43333333           0.11666667           0.00000000 C 
atom_frac            0.41666667           0.18333333           0.00000000 C 
atom_frac            0.43333333           0.16666667           0.00000000 C 
atom_frac            0.41666667           0.23333333           0.00000000 C 
atom_frac            0.43333333           0.21666667           0.00000000 C 
atom_frac            0.41666667           0.28333333           0.00000000 C 
atom_frac            0.43333333           0.26666667           0.00000000 C 
atom_frac            0.41666667           0.33333333           0.00000000 C 
atom_frac            0.43333333           0.31666667           0.00000000 C 
atom_frac            0.41666667           0.38333333           0.00000000 C 
atom_frac            0.43333333           0.36666667           0.00000000 C 
atom_frac            0.41666667           0.43333333           0.00000000 C 
atom_frac            0.43333333           0.41666667           0.00000000 C 
atom_frac            0.41666667           0.48333333           0.00000000 C 
atom_frac            0.43333333           0.46666667           0.00000000 C 
atom_frac            0.41666667           0.53333333           0.00000000 C 
atom_frac            0.43333333           0.51666667           0.00000000 C 
atom_frac            0.41666667           0.58333333           0.00000000 C 
atom_frac            0.43333333           0.56666667           0.00000000 C 
atom_frac            0.41666667           0.63333333           0.00000000 C 
atom_frac            0.43333333           0.61666667           0.00000000 C 
atom_frac            0.41666667           0.68333333           0.00000000 C 
atom_frac            0.43333333           0.66666667           0.00000000 C 
atom_frac            0.41666667           0.73333333           0.00000000 C 
atom_frac            0.43333333           0.71666667           0.00000000 C 
atom_frac            0.41666667           0.78333333           0.00000000 C 
atom_frac            0.43333333           0.76666667           0.00000000 C 
atom_frac            0.41666667           0.83333333           0.00000000 C 
atom_frac            0.43333333           0.81666667           0.00000000 C 
atom_frac            0.41666667           0.88333333           0.00000000 C 
atom_frac            0.43333333           0.86666667           0.00000000 C 
atom_frac            0.41666667           0.93333333           0.00000000 C 
atom_frac            0.43333333           0.91666667           0.00000000 C 
atom_frac            0.41666667           0.98333333           0.00000000 C 
atom_frac            0.43333333           0.96666667           0.00000000 C 
atom_frac            0.46666667           0.03333333           0.00000000 C 
atom_frac            0.48333333           0.01666667           0.00000000 C 
atom_frac            0.46666667           0.08333333           0.00000000 C 
atom_frac            0.48333333           0.06666667           0.00000000 C 
atom_frac            0.46666667           0.13333333           0.00000000 C 
atom_frac            0.48333333           0.11666667           0.00000000 C 
atom_frac            0.46666667           0.18333333           0.00000000 C 
atom_frac            0.48333333           0.16666667           0.00000000 C 
atom_frac            0.46666667           0.23333333           0.00000000 C 
atom_frac            0.48333333           0.21666667           0.00000000 C 
atom_frac            0.46666667           0.28333333           0.00000000 C 
atom_frac            0.48333333           0.26666667           0.00000000 C 
atom_frac            0.46666667           0.33333333           0.00000000 C 
atom_frac            0.48333333           0.31666667           0.00000000 C 
atom_frac            0.46666667           0.38333333           0.00000000 C 
atom_frac            0.48333333           0.36666667           0.00000000 C 
atom_frac            0.46666667           0.43333333           0.00000000 C 
atom_frac            0.48333333           0.41666667           0.00000000 C 
atom_frac            0.46666667           0.48333333           0.00000000 C 
atom_frac            0.48333333           0.46666667           0.00000000 C 
atom_frac            0.46666667           0.53333333           0.00000000 C 
atom_frac            0.48333333           0.51666667           0.00000000 C 
atom_frac            0.46666667           0.58333333           0.00000000 C 
atom_frac            0.48333333           0.56666667           0.00000000 C 
atom_frac            0.46666667           0.63333333           0.00000000 C 
atom_frac            0.48333333           0.61666667           0.00000000 C 