lattice_vector        25        0        0
lattice_vector     -12.5    21.65        0
lattice_vector         0        0     4.26

atom_frac 0.0823261 2.30947e-09 -0.00120764 C
atom_frac 0.0945465 0.0559245 0.167732 C
atom_frac 0.0945466 0.0559245 0.498935 C
atom_frac 0.0823261 2.1709e-08 0.667874 C
atom_frac 0.0707219 0.0904927 -0.00117432 C
atom_frac 0.0197708 0.0904927 0.167841 C
atom_frac 0.0197708 0.0904926 0.498826 C
atom_frac 0.0707219 0.0904927 0.667841 C
atom_frac -0.038622 0.0559245 -0.0010653 C
atom_frac -0.0823261 3.37182e-08 0.167874 C
atom_frac -0.0823261 1.01617e-08 0.498792 C
atom_frac -0.038622 0.0559245 0.667732 C
atom_frac -0.0945465 -0.0559245 -0.00106517 C
atom_frac -0.0707219 -0.0904927 0.167841 C
atom_frac -0.0707219 -0.0904927 0.498826 C
atom_frac -0.0945466 -0.0559245 0.667732 C
atom_frac -0.0197708 -0.0904927 -0.00117429 C
atom_frac 0.038622 -0.0559245 0.167732 C
atom_frac 0.038622 -0.0559245 0.498935 C
atom_frac -0.0197708 -0.0904926 0.667841 C