
# ---------------------------------------------------------------------------
# Name and Label
# ---------------------------------------------------------------------------

SystemName          VNL-Export
SystemLabel         VNL-Export

# ---------------------------------------------------------------------------
# Lattice
# ---------------------------------------------------------------------------

LatticeConstant             1.00 Ang

%block LatticeVectors
    24.612000    -42.629200      0.000000
    24.612000     42.629200      0.000000
     0.000000      0.000000     25.000000
%endblock LatticeVectors

# ---------------------------------------------------------------------------
# Species and Atoms
# ---------------------------------------------------------------------------

NumberOfSpecies        1
NumberOfAtoms        800

%block ChemicalSpeciesLabel
  1   6  C
%endblock ChemicalSpeciesLabel

# ---------------------------------------------------------------------------
# Atomic Coordinates
# ---------------------------------------------------------------------------

AtomicCoordinatesFormat Ang

%block AtomicCoordinatesAndAtomicSpecies
     23.3814000     40.4977400      0.0000000     1
     24.6120000     41.2082281      0.0000000     1
     12.3060000     21.3146000      0.0000000     1
     13.5366000     22.0250881      0.0000000     1
     13.5366000     23.4460600      0.0000000     1
     14.7672000     24.1565481      0.0000000     1
     14.7672000     25.5775200      0.0000000     1
     15.9978000     26.2880081      0.0000000     1
     15.9978000     27.7089800      0.0000000     1
     17.2284000     28.4194681      0.0000000     1
     17.2284000     29.8404400      0.0000000     1
     18.4590000     30.5509281      0.0000000     1
     18.4590000     31.9719000      0.0000000     1
     19.6896000     32.6823881      0.0000000     1
     19.6896000     34.1033600      0.0000000     1
     20.9202000     34.8138481      0.0000000     1
     20.9202000     36.2348200      0.0000000     1
     22.1508000     36.9453081      0.0000000     1
     22.1508000     38.3662800      0.0000000     1
     23.3814000     39.0767681      0.0000000     1
     24.6120000     38.3662800      0.0000000     1
     25.8426000     39.0767681      0.0000000     1
     13.5366000     19.1831400      0.0000000     1
     14.7672000     19.8936281      0.0000000     1
     14.7672000     21.3146000      0.0000000     1
     15.9978000     22.0250881      0.0000000     1
     15.9978000     23.4460600      0.0000000     1
     17.2284000     24.1565481      0.0000000     1
     17.2284000     25.5775200      0.0000000     1
     18.4590000     26.2880081      0.0000000     1
     18.4590000     27.7089800      0.0000000     1
     19.6896000     28.4194681      0.0000000     1
     19.6896000     29.8404400      0.0000000     1
     20.9202000     30.5509281      0.0000000     1
     20.9202000     31.9719000      0.0000000     1
     22.1508000     32.6823881      0.0000000     1
     22.1508000     34.1033600      0.0000000     1
     23.3814000     34.8138481      0.0000000     1
     23.3814000     36.2348200      0.0000000     1
     24.6120000     36.9453081      0.0000000     1
     25.8426000     36.2348200      0.0000000     1
     27.0732000     36.9453081      0.0000000     1
     14.7672000     17.0516800      0.0000000     1
     15.9978000     17.7621681      0.0000000     1
     15.9978000     19.1831400      0.0000000     1
     17.2284000     19.8936281      0.0000000     1
     17.2284000     21.3146000      0.0000000     1
     18.4590000     22.0250881      0.0000000     1
     18.4590000     23.4460600      0.0000000     1
     19.6896000     24.1565481      0.0000000     1
     19.6896000     25.5775200      0.0000000     1
     20.9202000     26.2880081      0.0000000     1
     20.9202000     27.7089800      0.0000000     1
     22.1508000     28.4194681      0.0000000     1
     22.1508000     29.8404400      0.0000000     1
     23.3814000     30.5509281      0.0000000     1
     23.3814000     31.9719000      0.0000000     1
     24.6120000     32.6823881      0.0000000     1
     24.6120000     34.1033600      0.0000000     1
     25.8426000     34.8138481      0.0000000     1
     27.0732000     34.1033600      0.0000000     1
     28.3038000     34.8138481      0.0000000     1
     15.9978000     14.9202200      0.0000000     1
     17.2284000     15.6307081      0.0000000     1
     17.2284000     17.0516800      0.0000000     1
     18.4590000     17.7621681      0.0000000     1
     18.4590000     19.1831400      0.0000000     1
     19.6896000     19.8936281      0.0000000     1
     19.6896000     21.3146000      0.0000000     1
     20.9202000     22.0250881      0.0000000     1
     20.9202000     23.4460600      0.0000000     1
     22.1508000     24.1565481      0.0000000     1
     22.1508000     25.5775200      0.0000000     1
     23.3814000     26.2880081      0.0000000     1
     23.3814000     27.7089800      0.0000000     1
     24.6120000     28.4194681      0.0000000     1
     24.6120000     29.8404400      0.0000000     1
     25.8426000     30.5509281      0.0000000     1
     25.8426000     31.9719000      0.0000000     1
     27.0732000     32.6823881      0.0000000     1
     28.3038000     31.9719000      0.0000000     1
     29.5344000     32.6823881      0.0000000     1
     17.2284000     12.7887600      0.0000000     1
     18.4590000     13.4992481      0.0000000     1
     18.4590000     14.9202200      0.0000000     1
     19.6896000     15.6307081      0.0000000     1
     19.6896000     17.0516800      0.0000000     1
     20.9202000     17.7621681      0.0000000     1
     20.9202000     19.1831400      0.0000000     1
     22.1508000     19.8936281      0.0000000     1
     22.1508000     21.3146000      0.0000000     1
     23.3814000     22.0250881      0.0000000     1
     23.3814000     23.4460600      0.0000000     1
     24.6120000     24.1565481      0.0000000     1
     24.6120000     25.5775200      0.0000000     1
     25.8426000     26.2880081      0.0000000     1
     25.8426000     27.7089800      0.0000000     1
     27.0732000     28.4194681      0.0000000     1
     27.0732000     29.8404400      0.0000000     1
     28.3038000     30.5509281      0.0000000     1
     29.5344000     29.8404400      0.0000000     1
     30.7650000     30.5509281      0.0000000     1
     18.4590000     10.6573000      0.0000000     1
     19.6896000     11.3677881      0.0000000     1
     19.6896000     12.7887600      0.0000000     1
     20.9202000     13.4992481      0.0000000     1
     20.9202000     14.9202200      0.0000000     1
     22.1508000     15.6307081      0.0000000     1
     22.1508000     17.0516800      0.0000000     1
     23.3814000     17.7621681      0.0000000     1
     23.3814000     19.1831400      0.0000000     1
     24.6120000     19.8936281      0.0000000     1
     24.6120000     21.3146000      0.0000000     1
     25.8426000     22.0250881      0.0000000     1
     25.8426000     23.4460600      0.0000000     1
     27.0732000     24.1565481      0.0000000     1
     27.0732000     25.5775200      0.0000000     1
     28.3038000     26.2880081      0.0000000     1
     28.3038000     27.7089800      0.0000000     1
     29.5344000     28.4194681      0.0000000     1
     30.7650000     27.7089800      0.0000000     1
     31.9956000     28.4194681      0.0000000     1
     19.6896000      8.5258400      0.0000000     1
     20.9202000      9.2363281      0.0000000     1
     20.9202000     10.6573000      0.0000000     1
     22.1508000     11.3677881      0.0000000     1
     22.1508000     12.7887600      0.0000000     1
     23.3814000     13.4992481      0.0000000     1
     23.3814000     14.9202200      0.0000000     1
     24.6120000     15.6307081      0.0000000     1
     24.6120000     17.0516800      0.0000000     1
     25.8426000     17.7621681      0.0000000     1
     25.8426000     19.1831400      0.0000000     1
     27.0732000     19.8936281      0.0000000     1
     27.0732000     21.3146000      0.0000000     1
     28.3038000     22.0250881      0.0000000     1
     28.3038000     23.4460600      0.0000000     1
     29.5344000     24.1565481      0.0000000     1
     29.5344000     25.5775200      0.0000000     1
     30.7650000     26.2880081      0.0000000     1
     31.9956000     25.5775200      0.0000000     1
     33.2262000     26.2880081      0.0000000     1
     20.9202000      6.3943800      0.0000000     1
     22.1508000      7.1048681      0.0000000     1
     22.1508000      8.5258400      0.0000000     1
     23.3814000      9.2363281      0.0000000     1
     23.3814000     10.6573000      0.0000000     1
     24.6120000     11.3677881      0.0000000     1
     24.6120000     12.7887600      0.0000000     1
     25.8426000     13.4992481      0.0000000     1
     25.8426000     14.9202200      0.0000000     1
     27.0732000     15.6307081      0.0000000     1
     27.0732000     17.0516800      0.0000000     1
     28.3038000     17.7621681      0.0000000     1
     28.3038000     19.1831400      0.0000000     1
     29.5344000     19.8936281      0.0000000     1
     29.5344000     21.3146000      0.0000000     1
     30.7650000     22.0250881      0.0000000     1
     30.7650000     23.4460600      0.0000000     1
     31.9956000     24.1565481      0.0000000     1
     33.2262000     23.4460600      0.0000000     1
     34.4568000     24.1565481      0.0000000     1
     22.1508000      4.2629200      0.0000000     1
     23.3814000      4.9734081      0.0000000     1
     23.3814000      6.3943800      0.0000000     1
     24.6120000      7.1048681      0.0000000     1
     24.6120000      8.5258400      0.0000000     1
     25.8426000      9.2363281      0.0000000     1
     25.8426000     10.6573000      0.0000000     1
     27.0732000     11.3677881      0.0000000     1
     27.0732000     12.7887600      0.0000000     1
     28.3038000     13.4992481      0.0000000     1
     28.3038000     14.9202200      0.0000000     1
     29.5344000     15.6307081      0.0000000     1
     29.5344000     17.0516800      0.0000000     1
     30.7650000     17.7621681      0.0000000     1
     30.7650000     19.1831400      0.0000000     1
     31.9956000     19.8936281      0.0000000     1
     31.9956000     21.3146000      0.0000000     1
     33.2262000     22.0250881      0.0000000     1
     34.4568000     21.3146000      0.0000000     1
     35.6874000     22.0250881      0.0000000     1
     23.3814000      2.1314600      0.0000000     1
     24.6120000      2.8419481      0.0000000     1
     24.6120000      4.2629200      0.0000000     1
     25.8426000      4.9734081      0.0000000     1
     25.8426000      6.3943800      0.0000000     1
     27.0732000      7.1048681      0.0000000     1
     27.0732000      8.5258400      0.0000000     1
     28.3038000      9.2363281      0.0000000     1
     28.3038000     10.6573000      0.0000000     1
     29.5344000     11.3677881      0.0000000     1
     29.5344000     12.7887600      0.0000000     1
     30.7650000     13.4992481      0.0000000     1
     30.7650000     14.9202200      0.0000000     1
     31.9956000     15.6307081      0.0000000     1
     31.9956000     17.0516800      0.0000000     1
     33.2262000     17.7621681      0.0000000     1
     33.2262000     19.1831400      0.0000000     1
     34.4568000     19.8936281      0.0000000     1
     11.0754000     19.1831400      0.0000000     1
     12.3060000     19.8936281      0.0000000     1
      0.0000000      0.0000000      0.0000000     1
      1.2306000      0.7104881      0.0000000     1
      1.2306000      2.1314600      0.0000000     1
      2.4612000      2.8419481      0.0000000     1
      2.4612000      4.2629200      0.0000000     1
      3.6918000      4.9734081      0.0000000     1
      3.6918000      6.3943800      0.0000000     1
      4.9224000      7.1048681      0.0000000     1
      4.9224000      8.5258400      0.0000000     1
      6.1530000      9.2363281      0.0000000     1
      6.1530000     10.6573000      0.0000000     1
      7.3836000     11.3677881      0.0000000     1
      7.3836000     12.7887600      0.0000000     1
      8.6142000     13.4992481      0.0000000     1
      8.6142000     14.9202200      0.0000000     1
      9.8448000     15.6307081      0.0000000     1
      9.8448000     17.0516800      0.0000000     1
     11.0754000     17.7621681      0.0000000     1
     12.3060000     17.0516800      0.0000000     1
     13.5366000     17.7621681      0.0000000     1
      1.2306000     -2.1314600      0.0000000     1
      2.4612000     -1.4209719      0.0000000     1
      2.4612000      0.0000000      0.0000000     1
      3.6918000      0.7104881      0.0000000     1
      3.6918000      2.1314600      0.0000000     1
      4.9224000      2.8419481      0.0000000     1
      4.9224000      4.2629200      0.0000000     1
      6.1530000      4.9734081      0.0000000     1
      6.1530000      6.3943800      0.0000000     1
      7.3836000      7.1048681      0.0000000     1
      7.3836000      8.5258400      0.0000000     1
      8.6142000      9.2363281      0.0000000     1
      8.6142000     10.6573000      0.0000000     1
      9.8448000     11.3677881      0.0000000     1
      9.8448000     12.7887600      0.0000000     1
     11.0754000     13.4992481      0.0000000     1
     11.0754000     14.9202200      0.0000000     1
     12.3060000     15.6307081      0.0000000     1
     13.5366000     14.9202200      0.0000000     1
     14.7672000     15.6307081      0.0000000     1
      2.4612000     -4.2629200      0.0000000     1
      3.6918000     -3.5524319      0.0000000     1
      3.6918000     -2.1314600      0.0000000     1
      4.9224000     -1.4209719      0.0000000     1
      4.9224000      0.0000000      0.0000000     1
      6.1530000      0.7104881      0.0000000     1
      6.1530000      2.1314600      0.0000000     1
      7.3836000      2.8419481      0.0000000     1
      7.3836000      4.2629200      0.0000000     1
      8.6142000      4.9734081      0.0000000     1
      8.6142000      6.3943800      0.0000000     1
      9.8448000      7.1048681      0.0000000     1
      9.8448000      8.5258400      0.0000000     1
     11.0754000      9.2363281      0.0000000     1
     11.0754000     10.6573000      0.0000000     1
     12.3060000     11.3677881      0.0000000     1
     12.3060000     12.7887600      0.0000000     1
     13.5366000     13.4992481      0.0000000     1
     14.7672000     12.7887600      0.0000000     1
     15.9978000     13.4992481      0.0000000     1
      3.6918000     -6.3943800      0.0000000     1
      4.9224000     -5.6838919      0.0000000     1
      4.9224000     -4.2629200      0.0000000     1
      6.1530000     -3.5524319      0.0000000     1
      6.1530000     -2.1314600      0.0000000     1
      7.3836000     -1.4209719      0.0000000     1
      7.3836000      0.0000000      0.0000000     1
      8.6142000      0.7104881      0.0000000     1
      8.6142000      2.1314600      0.0000000     1
      9.8448000      2.8419481      0.0000000     1
      9.8448000      4.2629200      0.0000000     1
     11.0754000      4.9734081      0.0000000     1
     11.0754000      6.3943800      0.0000000     1
     12.3060000      7.1048681      0.0000000     1
     12.3060000      8.5258400      0.0000000     1
     13.5366000      9.2363281      0.0000000     1
     13.5366000     10.6573000      0.0000000     1
     14.7672000     11.3677881      0.0000000     1
     15.9978000     10.6573000      0.0000000     1
     17.2284000     11.3677881      0.0000000     1
      4.9224000     -8.5258400      0.0000000     1
      6.1530000     -7.8153519      0.0000000     1
      6.1530000     -6.3943800      0.0000000     1
      7.3836000     -5.6838919      0.0000000     1
      7.3836000     -4.2629200      0.0000000     1
      8.6142000     -3.5524319      0.0000000     1
      8.6142000     -2.1314600      0.0000000     1
      9.8448000     -1.4209719      0.0000000     1
      9.8448000      0.0000000      0.0000000     1
     11.0754000      0.7104881      0.0000000     1
     11.0754000      2.1314600      0.0000000     1
     12.3060000      2.8419481      0.0000000     1
     12.3060000      4.2629200      0.0000000     1
     13.5366000      4.9734081      0.0000000     1
     13.5366000      6.3943800      0.0000000     1
     14.7672000      7.1048681      0.0000000     1
     14.7672000      8.5258400      0.0000000     1
     15.9978000      9.2363281      0.0000000     1
     17.2284000      8.5258400      0.0000000     1
     18.4590000      9.2363281      0.0000000     1
      6.1530000    -10.6573000      0.0000000     1
      7.3836000     -9.9468119      0.0000000     1
      7.3836000     -8.5258400      0.0000000     1
      8.6142000     -7.8153519      0.0000000     1
      8.6142000     -6.3943800      0.0000000     1
      9.8448000     -5.6838919      0.0000000     1
      9.8448000     -4.2629200      0.0000000     1
     11.0754000     -3.5524319      0.0000000     1
     11.0754000     -2.1314600      0.0000000     1
     12.3060000     -1.4209719      0.0000000     1
     12.3060000      0.0000000      0.0000000     1
     13.5366000      0.7104881      0.0000000     1
     13.5366000      2.1314600      0.0000000     1
     14.7672000      2.8419481      0.0000000     1
     14.7672000      4.2629200      0.0000000     1
     15.9978000      4.9734081      0.0000000     1
     15.9978000      6.3943800      0.0000000     1
     17.2284000      7.1048681      0.0000000     1
     18.4590000      6.3943800      0.0000000     1
     19.6896000      7.1048681      0.0000000     1
      7.3836000    -12.7887600      0.0000000     1
      8.6142000    -12.0782719      0.0000000     1
      8.6142000    -10.6573000      0.0000000     1
      9.8448000     -9.9468119      0.0000000     1
      9.8448000     -8.5258400      0.0000000     1
     11.0754000     -7.8153519      0.0000000     1
     11.0754000     -6.3943800      0.0000000     1
     12.3060000     -5.6838919      0.0000000     1
     12.3060000     -4.2629200      0.0000000     1
     13.5366000     -3.5524319      0.0000000     1
     13.5366000     -2.1314600      0.0000000     1
     14.7672000     -1.4209719      0.0000000     1
     14.7672000      0.0000000      0.0000000     1
     15.9978000      0.7104881      0.0000000     1
     15.9978000      2.1314600      0.0000000     1
     17.2284000      2.8419481      0.0000000     1
     17.2284000      4.2629200      0.0000000     1
     18.4590000      4.9734081      0.0000000     1
     19.6896000      4.2629200      0.0000000     1
     20.9202000      4.9734081      0.0000000     1
      8.6142000    -14.9202200      0.0000000     1
      9.8448000    -14.2097319      0.0000000     1
      9.8448000    -12.7887600      0.0000000     1
     11.0754000    -12.0782719      0.0000000     1
     11.0754000    -10.6573000      0.0000000     1
     12.3060000     -9.9468119      0.0000000     1
     12.3060000     -8.5258400      0.0000000     1
     13.5366000     -7.8153519      0.0000000     1
     13.5366000     -6.3943800      0.0000000     1
     14.7672000     -5.6838919      0.0000000     1
     14.7672000     -4.2629200      0.0000000     1
     15.9978000     -3.5524319      0.0000000     1
     15.9978000     -2.1314600      0.0000000     1
     17.2284000     -1.4209719      0.0000000     1
     17.2284000      0.0000000      0.0000000     1
     18.4590000      0.7104881      0.0000000     1
     18.4590000      2.1314600      0.0000000     1
     19.6896000      2.8419481      0.0000000     1
     20.9202000      2.1314600      0.0000000     1
     22.1508000      2.8419481      0.0000000     1
      9.8448000    -17.0516800      0.0000000     1
     11.0754000    -16.3411919      0.0000000     1
     11.0754000    -14.9202200      0.0000000     1
     12.3060000    -14.2097319      0.0000000     1
     12.3060000    -12.7887600      0.0000000     1
     13.5366000    -12.0782719      0.0000000     1
     13.5366000    -10.6573000      0.0000000     1
     14.7672000     -9.9468119      0.0000000     1
     14.7672000     -8.5258400      0.0000000     1
     15.9978000     -7.8153519      0.0000000     1
     15.9978000     -6.3943800      0.0000000     1
     17.2284000     -5.6838919      0.0000000     1
     17.2284000     -4.2629200      0.0000000     1
     18.4590000     -3.5524319      0.0000000     1
     18.4590000     -2.1314600      0.0000000     1
     19.6896000     -1.4209719      0.0000000     1
     19.6896000      0.0000000      0.0000000     1
     20.9202000      0.7104881      0.0000000     1
     22.1508000      0.0000000      0.0000000     1
     23.3814000      0.7104881      0.0000000     1
     11.0754000    -19.1831400      0.0000000     1
     12.3060000    -18.4726519      0.0000000     1
     12.3060000    -17.0516800      0.0000000     1
     13.5366000    -16.3411919      0.0000000     1
     13.5366000    -14.9202200      0.0000000     1
     14.7672000    -14.2097319      0.0000000     1
     14.7672000    -12.7887600      0.0000000     1
     15.9978000    -12.0782719      0.0000000     1
     15.9978000    -10.6573000      0.0000000     1
     17.2284000     -9.9468119      0.0000000     1
     17.2284000     -8.5258400      0.0000000     1
     18.4590000     -7.8153519      0.0000000     1
     18.4590000     -6.3943800      0.0000000     1
     19.6896000     -5.6838919      0.0000000     1
     19.6896000     -4.2629200      0.0000000     1
     20.9202000     -3.5524319      0.0000000     1
     20.9202000     -2.1314600      0.0000000     1
     22.1508000     -1.4209719      0.0000000     1
     35.6874000     19.1831400      0.0000000     1
     36.9180000     19.8936281      0.0000000     1
     24.6120000      0.0000000      0.0000000     1
     25.8426000      0.7104881      0.0000000     1
     25.8426000      2.1314600      0.0000000     1
     27.0732000      2.8419481      0.0000000     1
     27.0732000      4.2629200      0.0000000     1
     28.3038000      4.9734081      0.0000000     1
     28.3038000      6.3943800      0.0000000     1
     29.5344000      7.1048681      0.0000000     1
     29.5344000      8.5258400      0.0000000     1
     30.7650000      9.2363281      0.0000000     1
     30.7650000     10.6573000      0.0000000     1
     31.9956000     11.3677881      0.0000000     1
     31.9956000     12.7887600      0.0000000     1
     33.2262000     13.4992481      0.0000000     1
     33.2262000     14.9202200      0.0000000     1
     34.4568000     15.6307081      0.0000000     1
     34.4568000     17.0516800      0.0000000     1
     35.6874000     17.7621681      0.0000000     1
     36.9180000     17.0516800      0.0000000     1
     38.1486000     17.7621681      0.0000000     1
     25.8426000     -2.1314600      0.0000000     1
     27.0732000     -1.4209719      0.0000000     1
     27.0732000      0.0000000      0.0000000     1
     28.3038000      0.7104881      0.0000000     1
     28.3038000      2.1314600      0.0000000     1
     29.5344000      2.8419481      0.0000000     1
     29.5344000      4.2629200      0.0000000     1
     30.7650000      4.9734081      0.0000000     1
     30.7650000      6.3943800      0.0000000     1
     31.9956000      7.1048681      0.0000000     1
     31.9956000      8.5258400      0.0000000     1
     33.2262000      9.2363281      0.0000000     1
     33.2262000     10.6573000      0.0000000     1
     34.4568000     11.3677881      0.0000000     1
     34.4568000     12.7887600      0.0000000     1
     35.6874000     13.4992481      0.0000000     1
     35.6874000     14.9202200      0.0000000     1
     36.9180000     15.6307081      0.0000000     1
     38.1486000     14.9202200      0.0000000     1
     39.3792000     15.6307081      0.0000000     1
     27.0732000     -4.2629200      0.0000000     1
     28.3038000     -3.5524319      0.0000000     1
     28.3038000     -2.1314600      0.0000000     1
     29.5344000     -1.4209719      0.0000000     1
     29.5344000      0.0000000      0.0000000     1
     30.7650000      0.7104881      0.0000000     1
     30.7650000      2.1314600      0.0000000     1
     31.9956000      2.8419481      0.0000000     1
     31.9956000      4.2629200      0.0000000     1
     33.2262000      4.9734081      0.0000000     1
     33.2262000      6.3943800      0.0000000     1
     34.4568000      7.1048681      0.0000000     1
     34.4568000      8.5258400      0.0000000     1
     35.6874000      9.2363281      0.0000000     1
     35.6874000     10.6573000      0.0000000     1
     36.9180000     11.3677881      0.0000000     1
     36.9180000     12.7887600      0.0000000     1
     38.1486000     13.4992481      0.0000000     1
     39.3792000     12.7887600      0.0000000     1
     40.6098000     13.4992481      0.0000000     1
     28.3038000     -6.3943800      0.0000000     1
     29.5344000     -5.6838919      0.0000000     1
     29.5344000     -4.2629200      0.0000000     1
     30.7650000     -3.5524319      0.0000000     1
     30.7650000     -2.1314600      0.0000000     1
     31.9956000     -1.4209719      0.0000000     1
     31.9956000      0.0000000      0.0000000     1
     33.2262000      0.7104881      0.0000000     1
     33.2262000      2.1314600      0.0000000     1
     34.4568000      2.8419481      0.0000000     1
     34.4568000      4.2629200      0.0000000     1
     35.6874000      4.9734081      0.0000000     1
     35.6874000      6.3943800      0.0000000     1
     36.9180000      7.1048681      0.0000000     1
     36.9180000      8.5258400      0.0000000     1
     38.1486000      9.2363281      0.0000000     1
     38.1486000     10.6573000      0.0000000     1
     39.3792000     11.3677881      0.0000000     1
     40.6098000     10.6573000      0.0000000     1
     41.8404000     11.3677881      0.0000000     1
     29.5344000     -8.5258400      0.0000000     1
     30.7650000     -7.8153519      0.0000000     1
     30.7650000     -6.3943800      0.0000000     1
     31.9956000     -5.6838919      0.0000000     1
     31.9956000     -4.2629200      0.0000000     1
     33.2262000     -3.5524319      0.0000000     1
     33.2262000     -2.1314600      0.0000000     1
     34.4568000     -1.4209719      0.0000000     1
     34.4568000      0.0000000      0.0000000     1
     35.6874000      0.7104881      0.0000000     1
     35.6874000      2.1314600      0.0000000     1
     36.9180000      2.8419481      0.0000000     1
     36.9180000      4.2629200      0.0000000     1
     38.1486000      4.9734081      0.0000000     1
     38.1486000      6.3943800      0.0000000     1
     39.3792000      7.1048681      0.0000000     1
     39.3792000      8.5258400      0.0000000     1
     40.6098000      9.2363281      0.0000000     1
     41.8404000      8.5258400      0.0000000     1
     43.0710000      9.2363281      0.0000000     1
     30.7650000    -10.6573000      0.0000000     1
     31.9956000     -9.9468119      0.0000000     1
     31.9956000     -8.5258400      0.0000000     1
     33.2262000     -7.8153519      0.0000000     1
     33.2262000     -6.3943800      0.0000000     1
     34.4568000     -5.6838919      0.0000000     1
     34.4568000     -4.2629200      0.0000000     1
     35.6874000     -3.5524319      0.0000000     1
     35.6874000     -2.1314600      0.0000000     1
     36.9180000     -1.4209719      0.0000000     1
     36.9180000      0.0000000      0.0000000     1
     38.1486000      0.7104881      0.0000000     1
     38.1486000      2.1314600      0.0000000     1
     39.3792000      2.8419481      0.0000000     1
     39.3792000      4.2629200      0.0000000     1
     40.6098000      4.9734081      0.0000000     1
     40.6098000      6.3943800      0.0000000     1
     41.8404000      7.1048681      0.0000000     1
     43.0710000      6.3943800      0.0000000     1
     44.3016000      7.1048681      0.0000000     1
     31.9956000    -12.7887600      0.0000000     1
     33.2262000    -12.0782719      0.0000000     1
     33.2262000    -10.6573000      0.0000000     1
     34.4568000     -9.9468119      0.0000000     1
     34.4568000     -8.5258400      0.0000000     1
     35.6874000     -7.8153519      0.0000000     1
     35.6874000     -6.3943800      0.0000000     1
     36.9180000     -5.6838919      0.0000000     1
     36.9180000     -4.2629200      0.0000000     1
     38.1486000     -3.5524319      0.0000000     1
     38.1486000     -2.1314600      0.0000000     1
     39.3792000     -1.4209719      0.0000000     1
     39.3792000      0.0000000      0.0000000     1
     40.6098000      0.7104881      0.0000000     1
     40.6098000      2.1314600      0.0000000     1
     41.8404000      2.8419481      0.0000000     1
     41.8404000      4.2629200      0.0000000     1
     43.0710000      4.9734081      0.0000000     1
     44.3016000      4.2629200      0.0000000     1
     45.5322000      4.9734081      0.0000000     1
     33.2262000    -14.9202200      0.0000000     1