
# ---------------------------------------------------------------------------
# Name and Label
# ---------------------------------------------------------------------------

SystemName          VNL-Export
SystemLabel         VNL-Export

# ---------------------------------------------------------------------------
# Lattice
# ---------------------------------------------------------------------------

LatticeConstant             1.00 Ang

%block LatticeVectors
    49.224000    -85.258400      0.000000
    49.224000     85.258400      0.000000
     0.000000      0.000000     25.000000
%endblock LatticeVectors

# ---------------------------------------------------------------------------
# Species and Atoms
# ---------------------------------------------------------------------------

NumberOfSpecies        1
NumberOfAtoms       3200

%block ChemicalSpeciesLabel
  1   6  C
%endblock ChemicalSpeciesLabel

# ---------------------------------------------------------------------------
# Atomic Coordinates
# ---------------------------------------------------------------------------

AtomicCoordinatesFormat Ang

%block AtomicCoordinatesAndAtomicSpecies
     47.9934000     83.1269400      0.0000000     1
     49.2240000     83.8374281      0.0000000     1
     36.9180000     63.9438000      0.0000000     1
     38.1486000     64.6542881      0.0000000     1
     38.1486000     66.0752600      0.0000000     1
     39.3792000     66.7857481      0.0000000     1
     39.3792000     68.2067200      0.0000000     1
     40.6098000     68.9172081      0.0000000     1
     40.6098000     70.3381800      0.0000000     1
     41.8404000     71.0486681      0.0000000     1
     41.8404000     72.4696400      0.0000000     1
     43.0710000     73.1801281      0.0000000     1
     43.0710000     74.6011000      0.0000000     1
     44.3016000     75.3115881      0.0000000     1
     44.3016000     76.7325600      0.0000000     1
     45.5322000     77.4430481      0.0000000     1
     45.5322000     78.8640200      0.0000000     1
     46.7628000     79.5745081      0.0000000     1
     46.7628000     80.9954800      0.0000000     1
     47.9934000     81.7059681      0.0000000     1
     49.2240000     80.9954800      0.0000000     1
     50.4546000     81.7059681      0.0000000     1
     38.1486000     61.8123400      0.0000000     1
     39.3792000     62.5228281      0.0000000     1
     39.3792000     63.9438000      0.0000000     1
     40.6098000     64.6542881      0.0000000     1
     40.6098000     66.0752600      0.0000000     1
     41.8404000     66.7857481      0.0000000     1
     41.8404000     68.2067200      0.0000000     1
     43.0710000     68.9172081      0.0000000     1
     43.0710000     70.3381800      0.0000000     1
     44.3016000     71.0486681      0.0000000     1
     44.3016000     72.4696400      0.0000000     1
     45.5322000     73.1801281      0.0000000     1
     45.5322000     74.6011000      0.0000000     1
     46.7628000     75.3115881      0.0000000     1
     46.7628000     76.7325600      0.0000000     1
     47.9934000     77.4430481      0.0000000     1
     47.9934000     78.8640200      0.0000000     1
     49.2240000     79.5745081      0.0000000     1
     50.4546000     78.8640200      0.0000000     1
     51.6852000     79.5745081      0.0000000     1
     39.3792000     59.6808800      0.0000000     1
     40.6098000     60.3913681      0.0000000     1
     40.6098000     61.8123400      0.0000000     1
     41.8404000     62.5228281      0.0000000     1
     41.8404000     63.9438000      0.0000000     1
     43.0710000     64.6542881      0.0000000     1
     43.0710000     66.0752600      0.0000000     1
     44.3016000     66.7857481      0.0000000     1
     44.3016000     68.2067200      0.0000000     1
     45.5322000     68.9172081      0.0000000     1
     45.5322000     70.3381800      0.0000000     1
     46.7628000     71.0486681      0.0000000     1
     46.7628000     72.4696400      0.0000000     1
     47.9934000     73.1801281      0.0000000     1
     47.9934000     74.6011000      0.0000000     1
     49.2240000     75.3115881      0.0000000     1
     49.2240000     76.7325600      0.0000000     1
     50.4546000     77.4430481      0.0000000     1
     51.6852000     76.7325600      0.0000000     1
     52.9158000     77.4430481      0.0000000     1
     40.6098000     57.5494200      0.0000000     1
     41.8404000     58.2599081      0.0000000     1
     41.8404000     59.6808800      0.0000000     1
     43.0710000     60.3913681      0.0000000     1
     43.0710000     61.8123400      0.0000000     1
     44.3016000     62.5228281      0.0000000     1
     44.3016000     63.9438000      0.0000000     1
     45.5322000     64.6542881      0.0000000     1
     45.5322000     66.0752600      0.0000000     1
     46.7628000     66.7857481      0.0000000     1
     46.7628000     68.2067200      0.0000000     1
     47.9934000     68.9172081      0.0000000     1
     47.9934000     70.3381800      0.0000000     1
     49.2240000     71.0486681      0.0000000     1
     49.2240000     72.4696400      0.0000000     1
     50.4546000     73.1801281      0.0000000     1
     50.4546000     74.6011000      0.0000000     1
     51.6852000     75.3115881      0.0000000     1
     52.9158000     74.6011000      0.0000000     1
     54.1464000     75.3115881      0.0000000     1
     41.8404000     55.4179600      0.0000000     1
     43.0710000     56.1284481      0.0000000     1
     43.0710000     57.5494200      0.0000000     1
     44.3016000     58.2599081      0.0000000     1
     44.3016000     59.6808800      0.0000000     1
     45.5322000     60.3913681      0.0000000     1
     45.5322000     61.8123400      0.0000000     1
     46.7628000     62.5228281      0.0000000     1
     46.7628000     63.9438000      0.0000000     1
     47.9934000     64.6542881      0.0000000     1
     47.9934000     66.0752600      0.0000000     1
     49.2240000     66.7857481      0.0000000     1
     49.2240000     68.2067200      0.0000000     1
     50.4546000     68.9172081      0.0000000     1
     50.4546000     70.3381800      0.0000000     1
     51.6852000     71.0486681      0.0000000     1
     51.6852000     72.4696400      0.0000000     1
     52.9158000     73.1801281      0.0000000     1
     54.1464000     72.4696400      0.0000000     1
     55.3770000     73.1801281      0.0000000     1
     43.0710000     53.2865000      0.0000000     1
     44.3016000     53.9969881      0.0000000     1
     44.3016000     55.4179600      0.0000000     1
     45.5322000     56.1284481      0.0000000     1
     45.5322000     57.5494200      0.0000000     1
     46.7628000     58.2599081      0.0000000     1
     46.7628000     59.6808800      0.0000000     1
     47.9934000     60.3913681      0.0000000     1
     47.9934000     61.8123400      0.0000000     1
     49.2240000     62.5228281      0.0000000     1
     49.2240000     63.9438000      0.0000000     1
     50.4546000     64.6542881      0.0000000     1
     50.4546000     66.0752600      0.0000000     1
     51.6852000     66.7857481      0.0000000     1
     51.6852000     68.2067200      0.0000000     1
     52.9158000     68.9172081      0.0000000     1
     52.9158000     70.3381800      0.0000000     1
     54.1464000     71.0486681      0.0000000     1
     55.3770000     70.3381800      0.0000000     1
     56.6076000     71.0486681      0.0000000     1
     44.3016000     51.1550400      0.0000000     1
     45.5322000     51.8655281      0.0000000     1
     45.5322000     53.2865000      0.0000000     1
     46.7628000     53.9969881      0.0000000     1
     46.7628000     55.4179600      0.0000000     1
     47.9934000     56.1284481      0.0000000     1
     47.9934000     57.5494200      0.0000000     1
     49.2240000     58.2599081      0.0000000     1
     49.2240000     59.6808800      0.0000000     1
     50.4546000     60.3913681      0.0000000     1
     50.4546000     61.8123400      0.0000000     1
     51.6852000     62.5228281      0.0000000     1
     51.6852000     63.9438000      0.0000000     1
     52.9158000     64.6542881      0.0000000     1
     52.9158000     66.0752600      0.0000000     1
     54.1464000     66.7857481      0.0000000     1
     54.1464000     68.2067200      0.0000000     1
     55.3770000     68.9172081      0.0000000     1
     56.6076000     68.2067200      0.0000000     1
     57.8382000     68.9172081      0.0000000     1
     45.5322000     49.0235800      0.0000000     1
     46.7628000     49.7340681      0.0000000     1
     46.7628000     51.1550400      0.0000000     1
     47.9934000     51.8655281      0.0000000     1
     47.9934000     53.2865000      0.0000000     1
     49.2240000     53.9969881      0.0000000     1
     49.2240000     55.4179600      0.0000000     1
     50.4546000     56.1284481      0.0000000     1
     50.4546000     57.5494200      0.0000000     1
     51.6852000     58.2599081      0.0000000     1
     51.6852000     59.6808800      0.0000000     1
     52.9158000     60.3913681      0.0000000     1
     52.9158000     61.8123400      0.0000000     1
     54.1464000     62.5228281      0.0000000     1
     54.1464000     63.9438000      0.0000000     1
     55.3770000     64.6542881      0.0000000     1
     55.3770000     66.0752600      0.0000000     1
     56.6076000     66.7857481      0.0000000     1
     57.8382000     66.0752600      0.0000000     1
     59.0688000     66.7857481      0.0000000     1
     46.7628000     46.8921200      0.0000000     1
     47.9934000     47.6026081      0.0000000     1
     47.9934000     49.0235800      0.0000000     1
     49.2240000     49.7340681      0.0000000     1
     49.2240000     51.1550400      0.0000000     1
     50.4546000     51.8655281      0.0000000     1
     50.4546000     53.2865000      0.0000000     1
     51.6852000     53.9969881      0.0000000     1
     51.6852000     55.4179600      0.0000000     1
     52.9158000     56.1284481      0.0000000     1
     52.9158000     57.5494200      0.0000000     1
     54.1464000     58.2599081      0.0000000     1
     54.1464000     59.6808800      0.0000000     1
     55.3770000     60.3913681      0.0000000     1
     55.3770000     61.8123400      0.0000000     1
     56.6076000     62.5228281      0.0000000     1
     56.6076000     63.9438000      0.0000000     1
     57.8382000     64.6542881      0.0000000     1
     59.0688000     63.9438000      0.0000000     1
     60.2994000     64.6542881      0.0000000     1
     47.9934000     44.7606600      0.0000000     1
     49.2240000     45.4711481      0.0000000     1
     49.2240000     46.8921200      0.0000000     1
     50.4546000     47.6026081      0.0000000     1
     50.4546000     49.0235800      0.0000000     1
     51.6852000     49.7340681      0.0000000     1
     51.6852000     51.1550400      0.0000000     1
     52.9158000     51.8655281      0.0000000     1
     52.9158000     53.2865000      0.0000000     1
     54.1464000     53.9969881      0.0000000     1
     54.1464000     55.4179600      0.0000000     1
     55.3770000     56.1284481      0.0000000     1
     55.3770000     57.5494200      0.0000000     1
     56.6076000     58.2599081      0.0000000     1
     56.6076000     59.6808800      0.0000000     1
     57.8382000     60.3913681      0.0000000     1
     57.8382000     61.8123400      0.0000000     1
     59.0688000     62.5228281      0.0000000     1
     35.6874000     61.8123400      0.0000000     1
     36.9180000     62.5228281      0.0000000     1
     24.6120000     42.6292000      0.0000000     1
     25.8426000     43.3396881      0.0000000     1
     25.8426000     44.7606600      0.0000000     1
     27.0732000     45.4711481      0.0000000     1
     27.0732000     46.8921200      0.0000000     1
     28.3038000     47.6026081      0.0000000     1
     28.3038000     49.0235800      0.0000000     1
     29.5344000     49.7340681      0.0000000     1
     29.5344000     51.1550400      0.0000000     1
     30.7650000     51.8655281      0.0000000     1
     30.7650000     53.2865000      0.0000000     1
     31.9956000     53.9969881      0.0000000     1
     31.9956000     55.4179600      0.0000000     1
     33.2262000     56.1284481      0.0000000     1
     33.2262000     57.5494200      0.0000000     1
     34.4568000     58.2599081      0.0000000     1
     34.4568000     59.6808800      0.0000000     1
     35.6874000     60.3913681      0.0000000     1
     36.9180000     59.6808800      0.0000000     1
     38.1486000     60.3913681      0.0000000     1
     25.8426000     40.4977400      0.0000000     1
     27.0732000     41.2082281      0.0000000     1
     27.0732000     42.6292000      0.0000000     1
     28.3038000     43.3396881      0.0000000     1
     28.3038000     44.7606600      0.0000000     1
     29.5344000     45.4711481      0.0000000     1
     29.5344000     46.8921200      0.0000000     1
     30.7650000     47.6026081      0.0000000     1
     30.7650000     49.0235800      0.0000000     1
     31.9956000     49.7340681      0.0000000     1
     31.9956000     51.1550400      0.0000000     1
     33.2262000     51.8655281      0.0000000     1
     33.2262000     53.2865000      0.0000000     1
     34.4568000     53.9969881      0.0000000     1
     34.4568000     55.4179600      0.0000000     1
     35.6874000     56.1284481      0.0000000     1
     35.6874000     57.5494200      0.0000000     1
     36.9180000     58.2599081      0.0000000     1
     38.1486000     57.5494200      0.0000000     1
     39.3792000     58.2599081      0.0000000     1
     27.0732000     38.3662800      0.0000000     1
     28.3038000     39.0767681      0.0000000     1
     28.3038000     40.4977400      0.0000000     1
     29.5344000     41.2082281      0.0000000     1
     29.5344000     42.6292000      0.0000000     1
     30.7650000     43.3396881      0.0000000     1
     30.7650000     44.7606600      0.0000000     1
     31.9956000     45.4711481      0.0000000     1
     31.9956000     46.8921200      0.0000000     1
     33.2262000     47.6026081      0.0000000     1
     33.2262000     49.0235800      0.0000000     1
     34.4568000     49.7340681      0.0000000     1
     34.4568000     51.1550400      0.0000000     1
     35.6874000     51.8655281      0.0000000     1
     35.6874000     53.2865000      0.0000000     1
     36.9180000     53.9969881      0.0000000     1
     36.9180000     55.4179600      0.0000000     1
     38.1486000     56.1284481      0.0000000     1
     39.3792000     55.4179600      0.0000000     1
     40.6098000     56.1284481      0.0000000     1
     28.3038000     36.2348200      0.0000000     1
     29.5344000     36.9453081      0.0000000     1
     29.5344000     38.3662800      0.0000000     1
     30.7650000     39.0767681      0.0000000     1
     30.7650000     40.4977400      0.0000000     1
     31.9956000     41.2082281      0.0000000     1
     31.9956000     42.6292000      0.0000000     1
     33.2262000     43.3396881      0.0000000     1
     33.2262000     44.7606600      0.0000000     1
     34.4568000     45.4711481      0.0000000     1
     34.4568000     46.8921200      0.0000000     1
     35.6874000     47.6026081      0.0000000     1
     35.6874000     49.0235800      0.0000000     1
     36.9180000     49.7340681      0.0000000     1
     36.9180000     51.1550400      0.0000000     1
     38.1486000     51.8655281      0.0000000     1
     38.1486000     53.2865000      0.0000000     1
     39.3792000     53.9969881      0.0000000     1
     40.6098000     53.2865000      0.0000000     1
     41.8404000     53.9969881      0.0000000     1
     29.5344000     34.1033600      0.0000000     1
     30.7650000     34.8138481      0.0000000     1
     30.7650000     36.2348200      0.0000000     1
     31.9956000     36.9453081      0.0000000     1
     31.9956000     38.3662800      0.0000000     1
     33.2262000     39.0767681      0.0000000     1
     33.2262000     40.4977400      0.0000000     1
     34.4568000     41.2082281      0.0000000     1
     34.4568000     42.6292000      0.0000000     1
     35.6874000     43.3396881      0.0000000     1
     35.6874000     44.7606600      0.0000000     1
     36.9180000     45.4711481      0.0000000     1
     36.9180000     46.8921200      0.0000000     1
     38.1486000     47.6026081      0.0000000     1
     38.1486000     49.0235800      0.0000000     1
     39.3792000     49.7340681      0.0000000     1
     39.3792000     51.1550400      0.0000000     1
     40.6098000     51.8655281      0.0000000     1
     41.8404000     51.1550400      0.0000000     1
     43.0710000     51.8655281      0.0000000     1
     30.7650000     31.9719000      0.0000000     1
     31.9956000     32.6823881      0.0000000     1
     31.9956000     34.1033600      0.0000000     1
     33.2262000     34.8138481      0.0000000     1
     33.2262000     36.2348200      0.0000000     1
     34.4568000     36.9453081      0.0000000     1
     34.4568000     38.3662800      0.0000000     1
     35.6874000     39.0767681      0.0000000     1
     35.6874000     40.4977400      0.0000000     1
     36.9180000     41.2082281      0.0000000     1
     36.9180000     42.6292000      0.0000000     1
     38.1486000     43.3396881      0.0000000     1
     38.1486000     44.7606600      0.0000000     1
     39.3792000     45.4711481      0.0000000     1
     39.3792000     46.8921200      0.0000000     1
     40.6098000     47.6026081      0.0000000     1
     40.6098000     49.0235800      0.0000000     1
     41.8404000     49.7340681      0.0000000     1
     43.0710000     49.0235800      0.0000000     1
     44.3016000     49.7340681      0.0000000     1
     31.9956000     29.8404400      0.0000000     1
     33.2262000     30.5509281      0.0000000     1
     33.2262000     31.9719000      0.0000000     1
     34.4568000     32.6823881      0.0000000     1
     34.4568000     34.1033600      0.0000000     1
     35.6874000     34.8138481      0.0000000     1
     35.6874000     36.2348200      0.0000000     1
     36.9180000     36.9453081      0.0000000     1
     36.9180000     38.3662800      0.0000000     1
     38.1486000     39.0767681      0.0000000     1
     38.1486000     40.4977400      0.0000000     1
     39.3792000     41.2082281      0.0000000     1
     39.3792000     42.6292000      0.0000000     1
     40.6098000     43.3396881      0.0000000     1
     40.6098000     44.7606600      0.0000000     1
     41.8404000     45.4711481      0.0000000     1
     41.8404000     46.8921200      0.0000000     1
     43.0710000     47.6026081      0.0000000     1
     44.3016000     46.8921200      0.0000000     1
     45.5322000     47.6026081      0.0000000     1
     33.2262000     27.7089800      0.0000000     1
     34.4568000     28.4194681      0.0000000     1
     34.4568000     29.8404400      0.0000000     1
     35.6874000     30.5509281      0.0000000     1
     35.6874000     31.9719000      0.0000000     1
     36.9180000     32.6823881      0.0000000     1
     36.9180000     34.1033600      0.0000000     1
     38.1486000     34.8138481      0.0000000     1
     38.1486000     36.2348200      0.0000000     1
     39.3792000     36.9453081      0.0000000     1
     39.3792000     38.3662800      0.0000000     1
     40.6098000     39.0767681      0.0000000     1
     40.6098000     40.4977400      0.0000000     1
     41.8404000     41.2082281      0.0000000     1
     41.8404000     42.6292000      0.0000000     1
     43.0710000     43.3396881      0.0000000     1
     43.0710000     44.7606600      0.0000000     1
     44.3016000     45.4711481      0.0000000     1
     45.5322000     44.7606600      0.0000000     1
     46.7628000     45.4711481      0.0000000     1
     34.4568000     25.5775200      0.0000000     1
     35.6874000     26.2880081      0.0000000     1
     35.6874000     27.7089800      0.0000000     1
     36.9180000     28.4194681      0.0000000     1
     36.9180000     29.8404400      0.0000000     1
     38.1486000     30.5509281      0.0000000     1
     38.1486000     31.9719000      0.0000000     1
     39.3792000     32.6823881      0.0000000     1
     39.3792000     34.1033600      0.0000000     1
     40.6098000     34.8138481      0.0000000     1
     40.6098000     36.2348200      0.0000000     1
     41.8404000     36.9453081      0.0000000     1
     41.8404000     38.3662800      0.0000000     1
     43.0710000     39.0767681      0.0000000     1
     43.0710000     40.4977400      0.0000000     1
     44.3016000     41.2082281      0.0000000     1
     44.3016000     42.6292000      0.0000000     1
     45.5322000     43.3396881      0.0000000     1
     46.7628000     42.6292000      0.0000000     1
     47.9934000     43.3396881      0.0000000     1
     35.6874000     23.4460600      0.0000000     1
     36.9180000     24.1565481      0.0000000     1
     36.9180000     25.5775200      0.0000000     1
     38.1486000     26.2880081      0.0000000     1
     38.1486000     27.7089800      0.0000000     1
     39.3792000     28.4194681      0.0000000     1
     39.3792000     29.8404400      0.0000000     1
     40.6098000     30.5509281      0.0000000     1
     40.6098000     31.9719000      0.0000000     1
     41.8404000     32.6823881      0.0000000     1
     41.8404000     34.1033600      0.0000000     1
     43.0710000     34.8138481      0.0000000     1
     43.0710000     36.2348200      0.0000000     1
     44.3016000     36.9453081      0.0000000     1
     44.3016000     38.3662800      0.0000000     1
     45.5322000     39.0767681      0.0000000     1
     45.5322000     40.4977400      0.0000000     1
     46.7628000     41.2082281      0.0000000     1
     60.2994000     61.8123400      0.0000000     1
     61.5300000     62.5228281      0.0000000     1
     49.2240000     42.6292000      0.0000000     1
     50.4546000     43.3396881      0.0000000     1
     50.4546000     44.7606600      0.0000000     1
     51.6852000     45.4711481      0.0000000     1
     51.6852000     46.8921200      0.0000000     1
     52.9158000     47.6026081      0.0000000     1
     52.9158000     49.0235800      0.0000000     1
     54.1464000     49.7340681      0.0000000     1
     54.1464000     51.1550400      0.0000000     1
     55.3770000     51.8655281      0.0000000     1
     55.3770000     53.2865000      0.0000000     1
     56.6076000     53.9969881      0.0000000     1
     56.6076000     55.4179600      0.0000000     1
     57.8382000     56.1284481      0.0000000     1
     57.8382000     57.5494200      0.0000000     1
     59.0688000     58.2599081      0.0000000     1
     59.0688000     59.6808800      0.0000000     1
     60.2994000     60.3913681      0.0000000     1
     61.5300000     59.6808800      0.0000000     1
     62.7606000     60.3913681      0.0000000     1
     50.4546000     40.4977400      0.0000000     1
     51.6852000     41.2082281      0.0000000     1
     51.6852000     42.6292000      0.0000000     1
     52.9158000     43.3396881      0.0000000     1
     52.9158000     44.7606600      0.0000000     1
     54.1464000     45.4711481      0.0000000     1
     54.1464000     46.8921200      0.0000000     1
     55.3770000     47.6026081      0.0000000     1
     55.3770000     49.0235800      0.0000000     1
     56.6076000     49.7340681      0.0000000     1
     56.6076000     51.1550400      0.0000000     1
     57.8382000     51.8655281      0.0000000     1
     57.8382000     53.2865000      0.0000000     1
     59.0688000     53.9969881      0.0000000     1
     59.0688000     55.4179600      0.0000000     1
     60.2994000     56.1284481      0.0000000     1
     60.2994000     57.5494200      0.0000000     1
     61.5300000     58.2599081      0.0000000     1
     62.7606000     57.5494200      0.0000000     1
     63.9912000     58.2599081      0.0000000     1
     51.6852000     38.3662800      0.0000000     1
     52.9158000     39.0767681      0.0000000     1
     52.9158000     40.4977400      0.0000000     1
     54.1464000     41.2082281      0.0000000     1
     54.1464000     42.6292000      0.0000000     1
     55.3770000     43.3396881      0.0000000     1
     55.3770000     44.7606600      0.0000000     1
     56.6076000     45.4711481      0.0000000     1
     56.6076000     46.8921200      0.0000000     1
     57.8382000     47.6026081      0.0000000     1
     57.8382000     49.0235800      0.0000000     1
     59.0688000     49.7340681      0.0000000     1
     59.0688000     51.1550400      0.0000000     1
     60.2994000     51.8655281      0.0000000     1
     60.2994000     53.2865000      0.0000000     1
     61.5300000     53.9969881      0.0000000     1
     61.5300000     55.4179600      0.0000000     1
     62.7606000     56.1284481      0.0000000     1
     63.9912000     55.4179600      0.0000000     1
     65.2218000     56.1284481      0.0000000     1
     52.9158000     36.2348200      0.0000000     1
     54.1464000     36.9453081      0.0000000     1
     54.1464000     38.3662800      0.0000000     1
     55.3770000     39.0767681      0.0000000     1
     55.3770000     40.4977400      0.0000000     1
     56.6076000     41.2082281      0.0000000     1
     56.6076000     42.6292000      0.0000000     1
     57.8382000     43.3396881      0.0000000     1
     57.8382000     44.7606600      0.0000000     1
     59.0688000     45.4711481      0.0000000     1
     59.0688000     46.8921200      0.0000000     1
     60.2994000     47.6026081      0.0000000     1
     60.2994000     49.0235800      0.0000000     1
     61.5300000     49.7340681      0.0000000     1
     61.5300000     51.1550400      0.0000000     1
     62.7606000     51.8655281      0.0000000     1
     62.7606000     53.2865000      0.0000000     1
     63.9912000     53.9969881      0.0000000     1
     65.2218000     53.2865000      0.0000000     1
     66.4524000     53.9969881      0.0000000     1
     54.1464000     34.1033600      0.0000000     1
     55.3770000     34.8138481      0.0000000     1
     55.3770000     36.2348200      0.0000000     1
     56.6076000     36.9453081      0.0000000     1
     56.6076000     38.3662800      0.0000000     1
     57.8382000     39.0767681      0.0000000     1
     57.8382000     40.4977400      0.0000000     1
     59.0688000     41.2082281      0.0000000     1
     59.0688000     42.6292000      0.0000000     1
     60.2994000     43.3396881      0.0000000     1
     60.2994000     44.7606600      0.0000000     1
     61.5300000     45.4711481      0.0000000     1
     61.5300000     46.8921200      0.0000000     1
     62.7606000     47.6026081      0.0000000     1
     62.7606000     49.0235800      0.0000000     1
     63.9912000     49.7340681      0.0000000     1
     63.9912000     51.1550400      0.0000000     1
     65.2218000     51.8655281      0.0000000     1
     66.4524000     51.1550400      0.0000000     1
     67.6830000     51.8655281      0.0000000     1
     55.3770000     31.9719000      0.0000000     1
     56.6076000     32.6823881      0.0000000     1
     56.6076000     34.1033600      0.0000000     1
     57.8382000     34.8138481      0.0000000     1
     57.8382000     36.2348200      0.0000000     1
     59.0688000     36.9453081      0.0000000     1
     59.0688000     38.3662800      0.0000000     1
     60.2994000     39.0767681      0.0000000     1
     60.2994000     40.4977400      0.0000000     1
     61.5300000     41.2082281      0.0000000     1
     61.5300000     42.6292000      0.0000000     1
     62.7606000     43.3396881      0.0000000     1
     62.7606000     44.7606600      0.0000000     1
     63.9912000     45.4711481      0.0000000     1
     63.9912000     46.8921200      0.0000000     1
     65.2218000     47.6026081      0.0000000     1
     65.2218000     49.0235800      0.0000000     1
     66.4524000     49.7340681      0.0000000     1
     67.6830000     49.0235800      0.0000000     1
     68.9136000     49.7340681      0.0000000     1
     56.6076000     29.8404400      0.0000000     1
     57.8382000     30.5509281      0.0000000     1
     57.8382000     31.9719000      0.0000000     1
     59.0688000     32.6823881      0.0000000     1
     59.0688000     34.1033600      0.0000000     1
     60.2994000     34.8138481      0.0000000     1
     60.2994000     36.2348200      0.0000000     1
     61.5300000     36.9453081      0.0000000     1
     61.5300000     38.3662800      0.0000000     1
     62.7606000     39.0767681      0.0000000     1
     62.7606000     40.4977400      0.0000000     1
     63.9912000     41.2082281      0.0000000     1
     63.9912000     42.6292000      0.0000000     1
     65.2218000     43.3396881      0.0000000     1
     65.2218000     44.7606600      0.0000000     1
     66.4524000     45.4711481      0.0000000     1
     66.4524000     46.8921200      0.0000000     1
     67.6830000     47.6026081      0.0000000     1
     68.9136000     46.8921200      0.0000000     1
     70.1442000     47.6026081      0.0000000     1
     57.8382000     27.7089800      0.0000000     1