
# ---------------------------------------------------------------------------
# Name and Label
# ---------------------------------------------------------------------------

SystemName          VNL-Export
SystemLabel         VNL-Export

# ---------------------------------------------------------------------------
# Lattice
# ---------------------------------------------------------------------------

LatticeConstant             1.00 Ang

%block LatticeVectors
    98.448000   -170.516800      0.000000
    98.448000    170.516800      0.000000
     0.000000      0.000000     25.000000
%endblock LatticeVectors

# ---------------------------------------------------------------------------
# Species and Atoms
# ---------------------------------------------------------------------------

NumberOfSpecies        1
NumberOfAtoms      12800

%block ChemicalSpeciesLabel
  1   6  C
%endblock ChemicalSpeciesLabel

# ---------------------------------------------------------------------------
# Atomic Coordinates
# ---------------------------------------------------------------------------

AtomicCoordinatesFormat Ang

%block AtomicCoordinatesAndAtomicSpecies
     97.2174000    168.3853400      0.0000000     1
     98.4480000    169.0958281      0.0000000     1
     86.1420000    149.2022000      0.0000000     1
     87.3726000    149.9126881      0.0000000     1
     87.3726000    151.3336600      0.0000000     1
     88.6032000    152.0441481      0.0000000     1
     88.6032000    153.4651200      0.0000000     1
     89.8338000    154.1756081      0.0000000     1
     89.8338000    155.5965800      0.0000000     1
     91.0644000    156.3070681      0.0000000     1
     91.0644000    157.7280400      0.0000000     1
     92.2950000    158.4385281      0.0000000     1
     92.2950000    159.8595000      0.0000000     1
     93.5256000    160.5699881      0.0000000     1
     93.5256000    161.9909600      0.0000000     1
     94.7562000    162.7014481      0.0000000     1
     94.7562000    164.1224200      0.0000000     1
     95.9868000    164.8329081      0.0000000     1
     95.9868000    166.2538800      0.0000000     1
     97.2174000    166.9643681      0.0000000     1
     98.4480000    166.2538800      0.0000000     1
     99.6786000    166.9643681      0.0000000     1
     87.3726000    147.0707400      0.0000000     1
     88.6032000    147.7812281      0.0000000     1
     88.6032000    149.2022000      0.0000000     1
     89.8338000    149.9126881      0.0000000     1
     89.8338000    151.3336600      0.0000000     1
     91.0644000    152.0441481      0.0000000     1
     91.0644000    153.4651200      0.0000000     1
     92.2950000    154.1756081      0.0000000     1
     92.2950000    155.5965800      0.0000000     1
     93.5256000    156.3070681      0.0000000     1
     93.5256000    157.7280400      0.0000000     1
     94.7562000    158.4385281      0.0000000     1
     94.7562000    159.8595000      0.0000000     1
     95.9868000    160.5699881      0.0000000     1
     95.9868000    161.9909600      0.0000000     1
     97.2174000    162.7014481      0.0000000     1
     97.2174000    164.1224200      0.0000000     1
     98.4480000    164.8329081      0.0000000     1
     99.6786000    164.1224200      0.0000000     1
    100.9092000    164.8329081      0.0000000     1
     88.6032000    144.9392800      0.0000000     1
     89.8338000    145.6497681      0.0000000     1
     89.8338000    147.0707400      0.0000000     1
     91.0644000    147.7812281      0.0000000     1
     91.0644000    149.2022000      0.0000000     1
     92.2950000    149.9126881      0.0000000     1
     92.2950000    151.3336600      0.0000000     1
     93.5256000    152.0441481      0.0000000     1
     93.5256000    153.4651200      0.0000000     1
     94.7562000    154.1756081      0.0000000     1
     94.7562000    155.5965800      0.0000000     1
     95.9868000    156.3070681      0.0000000     1
     95.9868000    157.7280400      0.0000000     1
     97.2174000    158.4385281      0.0000000     1
     97.2174000    159.8595000      0.0000000     1
     98.4480000    160.5699881      0.0000000     1
     98.4480000    161.9909600      0.0000000     1
     99.6786000    162.7014481      0.0000000     1
    100.9092000    161.9909600      0.0000000     1
    102.1398000    162.7014481      0.0000000     1
     89.8338000    142.8078200      0.0000000     1
     91.0644000    143.5183081      0.0000000     1
     91.0644000    144.9392800      0.0000000     1
     92.2950000    145.6497681      0.0000000     1
     92.2950000    147.0707400      0.0000000     1
     93.5256000    147.7812281      0.0000000     1
     93.5256000    149.2022000      0.0000000     1
     94.7562000    149.9126881      0.0000000     1
     94.7562000    151.3336600      0.0000000     1
     95.9868000    152.0441481      0.0000000     1
     95.9868000    153.4651200      0.0000000     1
     97.2174000    154.1756081      0.0000000     1
     97.2174000    155.5965800      0.0000000     1
     98.4480000    156.3070681      0.0000000     1
     98.4480000    157.7280400      0.0000000     1
     99.6786000    158.4385281      0.0000000     1
     99.6786000    159.8595000      0.0000000     1
    100.9092000    160.5699881      0.0000000     1
    102.1398000    159.8595000      0.0000000     1
    103.3704000    160.5699881      0.0000000     1
     91.0644000    140.6763600      0.0000000     1
     92.2950000    141.3868481      0.0000000     1
     92.2950000    142.8078200      0.0000000     1
     93.5256000    143.5183081      0.0000000     1
     93.5256000    144.9392800      0.0000000     1
     94.7562000    145.6497681      0.0000000     1
     94.7562000    147.0707400      0.0000000     1
     95.9868000    147.7812281      0.0000000     1
     95.9868000    149.2022000      0.0000000     1
     97.2174000    149.9126881      0.0000000     1
     97.2174000    151.3336600      0.0000000     1
     98.4480000    152.0441481      0.0000000     1
     98.4480000    153.4651200      0.0000000     1
     99.6786000    154.1756081      0.0000000     1
     99.6786000    155.5965800      0.0000000     1
    100.9092000    156.3070681      0.0000000     1
    100.9092000    157.7280400      0.0000000     1
    102.1398000    158.4385281      0.0000000     1
    103.3704000    157.7280400      0.0000000     1
    104.6010000    158.4385281      0.0000000     1
     92.2950000    138.5449000      0.0000000     1
     93.5256000    139.2553881      0.0000000     1
     93.5256000    140.6763600      0.0000000     1
     94.7562000    141.3868481      0.0000000     1
     94.7562000    142.8078200      0.0000000     1
     95.9868000    143.5183081      0.0000000     1
     95.9868000    144.9392800      0.0000000     1
     97.2174000    145.6497681      0.0000000     1
     97.2174000    147.0707400      0.0000000     1
     98.4480000    147.7812281      0.0000000     1
     98.4480000    149.2022000      0.0000000     1
     99.6786000    149.9126881      0.0000000     1
     99.6786000    151.3336600      0.0000000     1
    100.9092000    152.0441481      0.0000000     1
    100.9092000    153.4651200      0.0000000     1
    102.1398000    154.1756081      0.0000000     1
    102.1398000    155.5965800      0.0000000     1
    103.3704000    156.3070681      0.0000000     1
    104.6010000    155.5965800      0.0000000     1
    105.8316000    156.3070681      0.0000000     1
     93.5256000    136.4134400      0.0000000     1
     94.7562000    137.1239281      0.0000000     1
     94.7562000    138.5449000      0.0000000     1
     95.9868000    139.2553881      0.0000000     1
     95.9868000    140.6763600      0.0000000     1
     97.2174000    141.3868481      0.0000000     1
     97.2174000    142.8078200      0.0000000     1
     98.4480000    143.5183081      0.0000000     1
     98.4480000    144.9392800      0.0000000     1
     99.6786000    145.6497681      0.0000000     1
     99.6786000    147.0707400      0.0000000     1
    100.9092000    147.7812281      0.0000000     1
    100.9092000    149.2022000      0.0000000     1
    102.1398000    149.9126881      0.0000000     1
    102.1398000    151.3336600      0.0000000     1
    103.3704000    152.0441481      0.0000000     1
    103.3704000    153.4651200      0.0000000     1
    104.6010000    154.1756081      0.0000000     1
    105.8316000    153.4651200      0.0000000     1
    107.0622000    154.1756081      0.0000000     1
     94.7562000    134.2819800      0.0000000     1
     95.9868000    134.9924681      0.0000000     1
     95.9868000    136.4134400      0.0000000     1
     97.2174000    137.1239281      0.0000000     1
     97.2174000    138.5449000      0.0000000     1
     98.4480000    139.2553881      0.0000000     1
     98.4480000    140.6763600      0.0000000     1
     99.6786000    141.3868481      0.0000000     1
     99.6786000    142.8078200      0.0000000     1
    100.9092000    143.5183081      0.0000000     1
    100.9092000    144.9392800      0.0000000     1
    102.1398000    145.6497681      0.0000000     1
    102.1398000    147.0707400      0.0000000     1
    103.3704000    147.7812281      0.0000000     1
    103.3704000    149.2022000      0.0000000     1
    104.6010000    149.9126881      0.0000000     1
    104.6010000    151.3336600      0.0000000     1
    105.8316000    152.0441481      0.0000000     1
    107.0622000    151.3336600      0.0000000     1
    108.2928000    152.0441481      0.0000000     1
     95.9868000    132.1505200      0.0000000     1
     97.2174000    132.8610081      0.0000000     1
     97.2174000    134.2819800      0.0000000     1
     98.4480000    134.9924681      0.0000000     1
     98.4480000    136.4134400      0.0000000     1
     99.6786000    137.1239281      0.0000000     1
     99.6786000    138.5449000      0.0000000     1
    100.9092000    139.2553881      0.0000000     1
    100.9092000    140.6763600      0.0000000     1
    102.1398000    141.3868481      0.0000000     1
    102.1398000    142.8078200      0.0000000     1
    103.3704000    143.5183081      0.0000000     1
    103.3704000    144.9392800      0.0000000     1
    104.6010000    145.6497681      0.0000000     1
    104.6010000    147.0707400      0.0000000     1
    105.8316000    147.7812281      0.0000000     1
    105.8316000    149.2022000      0.0000000     1
    107.0622000    149.9126881      0.0000000     1
    108.2928000    149.2022000      0.0000000     1
    109.5234000    149.9126881      0.0000000     1
     97.2174000    130.0190600      0.0000000     1
     98.4480000    130.7295481      0.0000000     1
     98.4480000    132.1505200      0.0000000     1
     99.6786000    132.8610081      0.0000000     1
     99.6786000    134.2819800      0.0000000     1
    100.9092000    134.9924681      0.0000000     1
    100.9092000    136.4134400      0.0000000     1
    102.1398000    137.1239281      0.0000000     1
    102.1398000    138.5449000      0.0000000     1
    103.3704000    139.2553881      0.0000000     1
    103.3704000    140.6763600      0.0000000     1
    104.6010000    141.3868481      0.0000000     1
    104.6010000    142.8078200      0.0000000     1
    105.8316000    143.5183081      0.0000000     1
    105.8316000    144.9392800      0.0000000     1
    107.0622000    145.6497681      0.0000000     1
    107.0622000    147.0707400      0.0000000     1
    108.2928000    147.7812281      0.0000000     1
     84.9114000    147.0707400      0.0000000     1
     86.1420000    147.7812281      0.0000000     1
     73.8360000    127.8876000      0.0000000     1
     75.0666000    128.5980881      0.0000000     1
     75.0666000    130.0190600      0.0000000     1
     76.2972000    130.7295481      0.0000000     1
     76.2972000    132.1505200      0.0000000     1
     77.5278000    132.8610081      0.0000000     1
     77.5278000    134.2819800      0.0000000     1
     78.7584000    134.9924681      0.0000000     1
     78.7584000    136.4134400      0.0000000     1
     79.9890000    137.1239281      0.0000000     1
     79.9890000    138.5449000      0.0000000     1
     81.2196000    139.2553881      0.0000000     1
     81.2196000    140.6763600      0.0000000     1
     82.4502000    141.3868481      0.0000000     1
     82.4502000    142.8078200      0.0000000     1
     83.6808000    143.5183081      0.0000000     1
     83.6808000    144.9392800      0.0000000     1
     84.9114000    145.6497681      0.0000000     1
     86.1420000    144.9392800      0.0000000     1
     87.3726000    145.6497681      0.0000000     1
     75.0666000    125.7561400      0.0000000     1
     76.2972000    126.4666281      0.0000000     1
     76.2972000    127.8876000      0.0000000     1
     77.5278000    128.5980881      0.0000000     1
     77.5278000    130.0190600      0.0000000     1
     78.7584000    130.7295481      0.0000000     1
     78.7584000    132.1505200      0.0000000     1
     79.9890000    132.8610081      0.0000000     1
     79.9890000    134.2819800      0.0000000     1
     81.2196000    134.9924681      0.0000000     1
     81.2196000    136.4134400      0.0000000     1
     82.4502000    137.1239281      0.0000000     1
     82.4502000    138.5449000      0.0000000     1
     83.6808000    139.2553881      0.0000000     1
     83.6808000    140.6763600      0.0000000     1
     84.9114000    141.3868481      0.0000000     1
     84.9114000    142.8078200      0.0000000     1
     86.1420000    143.5183081      0.0000000     1
     87.3726000    142.8078200      0.0000000     1
     88.6032000    143.5183081      0.0000000     1
     76.2972000    123.6246800      0.0000000     1
     77.5278000    124.3351681      0.0000000     1
     77.5278000    125.7561400      0.0000000     1
     78.7584000    126.4666281      0.0000000     1
     78.7584000    127.8876000      0.0000000     1
     79.9890000    128.5980881      0.0000000     1
     79.9890000    130.0190600      0.0000000     1
     81.2196000    130.7295481      0.0000000     1
     81.2196000    132.1505200      0.0000000     1
     82.4502000    132.8610081      0.0000000     1
     82.4502000    134.2819800      0.0000000     1
     83.6808000    134.9924681      0.0000000     1
     83.6808000    136.4134400      0.0000000     1
     84.9114000    137.1239281      0.0000000     1
     84.9114000    138.5449000      0.0000000     1
     86.1420000    139.2553881      0.0000000     1
     86.1420000    140.6763600      0.0000000     1
     87.3726000    141.3868481      0.0000000     1
     88.6032000    140.6763600      0.0000000     1
     89.8338000    141.3868481      0.0000000     1
     77.5278000    121.4932200      0.0000000     1
     78.7584000    122.2037081      0.0000000     1
     78.7584000    123.6246800      0.0000000     1
     79.9890000    124.3351681      0.0000000     1
     79.9890000    125.7561400      0.0000000     1
     81.2196000    126.4666281      0.0000000     1
     81.2196000    127.8876000      0.0000000     1
     82.4502000    128.5980881      0.0000000     1
     82.4502000    130.0190600      0.0000000     1
     83.6808000    130.7295481      0.0000000     1
     83.6808000    132.1505200      0.0000000     1
     84.9114000    132.8610081      0.0000000     1
     84.9114000    134.2819800      0.0000000     1
     86.1420000    134.9924681      0.0000000     1
     86.1420000    136.4134400      0.0000000     1
     87.3726000    137.1239281      0.0000000     1
     87.3726000    138.5449000      0.0000000     1
     88.6032000    139.2553881      0.0000000     1
     89.8338000    138.5449000      0.0000000     1
     91.0644000    139.2553881      0.0000000     1
     78.7584000    119.3617600      0.0000000     1
     79.9890000    120.0722481      0.0000000     1
     79.9890000    121.4932200      0.0000000     1
     81.2196000    122.2037081      0.0000000     1
     81.2196000    123.6246800      0.0000000     1
     82.4502000    124.3351681      0.0000000     1
     82.4502000    125.7561400      0.0000000     1
     83.6808000    126.4666281      0.0000000     1
     83.6808000    127.8876000      0.0000000     1
     84.9114000    128.5980881      0.0000000     1
     84.9114000    130.0190600      0.0000000     1
     86.1420000    130.7295481      0.0000000     1
     86.1420000    132.1505200      0.0000000     1
     87.3726000    132.8610081      0.0000000     1
     87.3726000    134.2819800      0.0000000     1
     88.6032000    134.9924681      0.0000000     1
     88.6032000    136.4134400      0.0000000     1
     89.8338000    137.1239281      0.0000000     1
     91.0644000    136.4134400      0.0000000     1
     92.2950000    137.1239281      0.0000000     1
     79.9890000    117.2303000      0.0000000     1
     81.2196000    117.9407881      0.0000000     1
     81.2196000    119.3617600      0.0000000     1
     82.4502000    120.0722481      0.0000000     1
     82.4502000    121.4932200      0.0000000     1
     83.6808000    122.2037081      0.0000000     1
     83.6808000    123.6246800      0.0000000     1
     84.9114000    124.3351681      0.0000000     1
     84.9114000    125.7561400      0.0000000     1
     86.1420000    126.4666281      0.0000000     1
     86.1420000    127.8876000      0.0000000     1
     87.3726000    128.5980881      0.0000000     1
     87.3726000    130.0190600      0.0000000     1
     88.6032000    130.7295481      0.0000000     1
     88.6032000    132.1505200      0.0000000     1
     89.8338000    132.8610081      0.0000000     1
     89.8338000    134.2819800      0.0000000     1
     91.0644000    134.9924681      0.0000000     1
     92.2950000    134.2819800      0.0000000     1
     93.5256000    134.9924681      0.0000000     1
     81.2196000    115.0988400      0.0000000     1
     82.4502000    115.8093281      0.0000000     1
     82.4502000    117.2303000      0.0000000     1
     83.6808000    117.9407881      0.0000000     1
     83.6808000    119.3617600      0.0000000     1
     84.9114000    120.0722481      0.0000000     1
     84.9114000    121.4932200      0.0000000     1
     86.1420000    122.2037081      0.0000000     1
     86.1420000    123.6246800      0.0000000     1
     87.3726000    124.3351681      0.0000000     1
     87.3726000    125.7561400      0.0000000     1
     88.6032000    126.4666281      0.0000000     1
     88.6032000    127.8876000      0.0000000     1
     89.8338000    128.5980881      0.0000000     1
     89.8338000    130.0190600      0.0000000     1
     91.0644000    130.7295481      0.0000000     1
     91.0644000    132.1505200      0.0000000     1
     92.2950000    132.8610081      0.0000000     1
     93.5256000    132.1505200      0.0000000     1
     94.7562000    132.8610081      0.0000000     1
     82.4502000    112.9673800      0.0000000     1
     83.6808000    113.6778681      0.0000000     1
     83.6808000    115.0988400      0.0000000     1
     84.9114000    115.8093281      0.0000000     1
     84.9114000    117.2303000      0.0000000     1
     86.1420000    117.9407881      0.0000000     1
     86.1420000    119.3617600      0.0000000     1
     87.3726000    120.0722481      0.0000000     1
     87.3726000    121.4932200      0.0000000     1
     88.6032000    122.2037081      0.0000000     1
     88.6032000    123.6246800      0.0000000     1
     89.8338000    124.3351681      0.0000000     1
     89.8338000    125.7561400      0.0000000     1
     91.0644000    126.4666281      0.0000000     1
     91.0644000    127.8876000      0.0000000     1
     92.2950000    128.5980881      0.0000000     1
     92.2950000    130.0190600      0.0000000     1
     93.5256000    130.7295481      0.0000000     1
     94.7562000    130.0190600      0.0000000     1
     95.9868000    130.7295481      0.0000000     1
     83.6808000    110.8359200      0.0000000     1
     84.9114000    111.5464081      0.0000000     1
     84.9114000    112.9673800      0.0000000     1
     86.1420000    113.6778681      0.0000000     1
     86.1420000    115.0988400      0.0000000     1
     87.3726000    115.8093281      0.0000000     1
     87.3726000    117.2303000      0.0000000     1
     88.6032000    117.9407881      0.0000000     1
     88.6032000    119.3617600      0.0000000     1
     89.8338000    120.0722481      0.0000000     1
     89.8338000    121.4932200      0.0000000     1
     91.0644000    122.2037081      0.0000000     1
     91.0644000    123.6246800      0.0000000     1
     92.2950000    124.3351681      0.0000000     1
     92.2950000    125.7561400      0.0000000     1
     93.5256000    126.4666281      0.0000000     1
     93.5256000    127.8876000      0.0000000     1
     94.7562000    128.5980881      0.0000000     1
     95.9868000    127.8876000      0.0000000     1
     97.2174000    128.5980881      0.0000000     1
     84.9114000    108.7044600      0.0000000     1
     86.1420000    109.4149481      0.0000000     1
     86.1420000    110.8359200      0.0000000     1
     87.3726000    111.5464081      0.0000000     1
     87.3726000    112.9673800      0.0000000     1
     88.6032000    113.6778681      0.0000000     1
     88.6032000    115.0988400      0.0000000     1
     89.8338000    115.8093281      0.0000000     1
     89.8338000    117.2303000      0.0000000     1
     91.0644000    117.9407881      0.0000000     1
     91.0644000    119.3617600      0.0000000     1
     92.2950000    120.0722481      0.0000000     1
     92.2950000    121.4932200      0.0000000     1
     93.5256000    122.2037081      0.0000000     1
     93.5256000    123.6246800      0.0000000     1
     94.7562000    124.3351681      0.0000000     1
     94.7562000    125.7561400      0.0000000     1
     95.9868000    126.4666281      0.0000000     1
    109.5234000    147.0707400      0.0000000     1
    110.7540000    147.7812281      0.0000000     1
     98.4480000    127.8876000      0.0000000     1
     99.6786000    128.5980881      0.0000000     1
     99.6786000    130.0190600      0.0000000     1
    100.9092000    130.7295481      0.0000000     1
    100.9092000    132.1505200      0.0000000     1
    102.1398000    132.8610081      0.0000000     1
    102.1398000    134.2819800      0.0000000     1
    103.3704000    134.9924681      0.0000000     1
    103.3704000    136.4134400      0.0000000     1
    104.6010000    137.1239281      0.0000000     1
    104.6010000    138.5449000      0.0000000     1
    105.8316000    139.2553881      0.0000000     1
    105.8316000    140.6763600      0.0000000     1
    107.0622000    141.3868481      0.0000000     1
    107.0622000    142.8078200      0.0000000     1
    108.2928000    143.5183081      0.0000000     1
    108.2928000    144.9392800      0.0000000     1
    109.5234000    145.6497681      0.0000000     1
    110.7540000    144.9392800      0.0000000     1
    111.9846000    145.6497681      0.0000000     1
     99.6786000    125.7561400      0.0000000     1
    100.9092000    126.4666281      0.0000000     1
    100.9092000    127.8876000      0.0000000     1
    102.1398000    128.5980881      0.0000000     1
    102.1398000    130.0190600      0.0000000     1
    103.3704000    130.7295481      0.0000000     1
    103.3704000    132.1505200      0.0000000     1
    104.6010000    132.8610081      0.0000000     1
    104.6010000    134.2819800      0.0000000     1
    105.8316000    134.9924681      0.0000000     1
    105.8316000    136.4134400      0.0000000     1
    107.0622000    137.1239281      0.0000000     1
    107.0622000    138.5449000      0.0000000     1
    108.2928000    139.2553881      0.0000000     1
    108.2928000    140.6763600      0.0000000     1
    109.5234000    141.3868481      0.0000000     1
    109.5234000    142.8078200      0.0000000     1
    110.7540000    143.5183081      0.0000000     1
    111.9846000    142.8078200      0.0000000     1
    113.2152000    143.5183081      0.0000000     1
    100.9092000    123.6246800      0.0000000     1
    102.1398000    124.3351681      0.0000000     1
    102.1398000    125.7561400      0.0000000     1
    103.3704000    126.4666281      0.0000000     1
    103.3704000    127.8876000      0.0000000     1
    104.6010000    128.5980881      0.0000000     1
    104.6010000    130.0190600      0.0000000     1
    105.8316000    130.7295481      0.0000000     1
    105.8316000    132.1505200      0.0000000     1
    107.0622000    132.8610081      0.0000000     1
    107.0622000    134.2819800      0.0000000     1
    108.2928000    134.9924681      0.0000000     1
    108.2928000    136.4134400      0.0000000     1
    109.5234000    137.1239281      0.0000000     1
    109.5234000    138.5449000      0.0000000     1
    110.7540000    139.2553881      0.0000000     1
    110.7540000    140.6763600      0.0000000     1
    111.9846000    141.3868481      0.0000000     1
    113.2152000    140.6763600      0.0000000     1
    114.4458000    141.3868481      0.0000000     1
    102.1398000    121.4932200      0.0000000     1
    103.3704000    122.2037081      0.0000000     1
    103.3704000    123.6246800      0.0000000     1
    104.6010000    124.3351681      0.0000000     1
    104.6010000    125.7561400      0.0000000     1
    105.8316000    126.4666281      0.0000000     1
    105.8316000    127.8876000      0.0000000     1
    107.0622000    128.5980881      0.0000000     1
    107.0622000    130.0190600      0.0000000     1
    108.2928000    130.7295481      0.0000000     1
    108.2928000    132.1505200      0.0000000     1
    109.5234000    132.8610081      0.0000000     1
    109.5234000    134.2819800      0.0000000     1
    110.7540000    134.9924681      0.0000000     1
    110.7540000    136.4134400      0.0000000     1
    111.9846000    137.1239281      0.0000000     1
    111.9846000    138.5449000      0.0000000     1
    113.2152000    139.2553881      0.0000000     1
    114.4458000    138.5449000      0.0000000     1
    115.6764000    139.2553881      0.0000000     1
    103.3704000    119.3617600      0.0000000     1
    104.6010000    120.0722481      0.0000000     1
    104.6010000    121.4932200      0.0000000     1
    105.8316000    122.2037081      0.0000000     1
    105.8316000    123.6246800      0.0000000     1
    107.0622000    124.3351681      0.0000000     1
    107.0622000    125.7561400      0.0000000     1
    108.2928000    126.4666281      0.0000000     1
    108.2928000    127.8876000      0.0000000     1
    109.5234000    128.5980881      0.0000000     1
    109.5234000    130.0190600      0.0000000     1
    110.7540000    130.7295481      0.0000000     1
    110.7540000    132.1505200      0.0000000     1
    111.9846000    132.8610081      0.0000000     1
    111.9846000    134.2819800      0.0000000     1
    113.2152000    134.9924681      0.0000000     1
    113.2152000    136.4134400      0.0000000     1
    114.4458000    137.1239281      0.0000000     1
    115.6764000    136.4134400      0.0000000     1
    116.9070000    137.1239281      0.0000000     1
    104.6010000    117.2303000      0.0000000     1
    105.8316000    117.9407881      0.0000000     1
    105.8316000    119.3617600      0.0000000     1
    107.0622000    120.0722481      0.0000000     1
    107.0622000    121.4932200      0.0000000     1
    108.2928000    122.2037081      0.0000000     1
    108.2928000    123.6246800      0.0000000     1
    109.5234000    124.3351681      0.0000000     1
    109.5234000    125.7561400      0.0000000     1
    110.7540000    126.4666281      0.0000000     1
    110.7540000    127.8876000      0.0000000     1
    111.9846000    128.5980881      0.0000000     1
    111.9846000    130.0190600      0.0000000     1
    113.2152000    130.7295481      0.0000000     1
    113.2152000    132.1505200      0.0000000     1
    114.4458000    132.8610081      0.0000000     1
    114.4458000    134.2819800      0.0000000     1
    115.6764000    134.9924681      0.0000000     1
    116.9070000    134.2819800      0.0000000     1
    118.1376000    134.9924681      0.0000000     1
    105.8316000    115.0988400      0.0000000     1
    107.0622000    115.8093281      0.0000000     1
    107.0622000    117.2303000      0.0000000     1
    108.2928000    117.9407881      0.0000000     1
    108.2928000    119.3617600      0.0000000     1
    109.5234000    120.0722481      0.0000000     1
    109.5234000    121.4932200      0.0000000     1
    110.7540000    122.2037081      0.0000000     1
    110.7540000    123.6246800      0.0000000     1
    111.9846000    124.3351681      0.0000000     1
    111.9846000    125.7561400      0.0000000     1
    113.2152000    126.4666281      0.0000000     1
    113.2152000    127.8876000      0.0000000     1
    114.4458000    128.5980881      0.0000000     1
    114.4458000    130.0190600      0.0000000     1
    115.6764000    130.7295481      0.0000000     1
    115.6764000    132.1505200      0.0000000     1
    116.9070000    132.8610081      0.0000000     1
    118.1376000    132.1505200      0.0000000     1
    119.3682000    132.8610081      0.0000000     1
    107.0622000    112.9673800      0.0000000     1