lattice_vector           22.05593600         -12.73400000           0.00000000
lattice_vector            0.00000000          25.46800000           0.00000000
lattice_vector            0.00000000           0.00000000          63.33200000

atom_frac            0.22517498           0.16666673           0.06250000 Ba 
atom_frac            0.08333326           0.05850827           0.14583325 Ba 
atom_frac            0.19149176           0.02482500           0.22916675 Ba 
atom_frac            0.08333326           0.09407498           0.02067500 Sn 
atom_frac            0.15592501           0.23925825           0.10400824 Sn 
atom_frac            0.01074174           0.16666673           0.18734175 Sn 
atom_frac            0.06525001           0.06177499           0.08485000 Cu 
atom_frac            0.18822502           0.00347501           0.16818326 Cu 
atom_frac            0.24652502           0.18475002           0.00151675 Cu 
atom_frac            0.17030001           0.02147500           0.04015000 Cu 
atom_frac            0.22852501           0.14882502           0.12348325 Cu 
atom_frac            0.10117498           0.07969999           0.20681674 Cu 
atom_frac            0.09547498           0.04342498           0.05019999 S 
atom_frac            0.20657500           0.05204999           0.13353325 S 
atom_frac            0.19795002           0.15452499           0.21686675 S 
atom_frac            0.21887500           0.04027498           0.07415000 S 
atom_frac            0.20972499           0.17860001           0.15748325 S 
atom_frac            0.07140001           0.03112501           0.24081674 S 
atom_frac            0.24640002           0.10747502           0.02065000 S 
atom_frac            0.14252499           0.13892501           0.10398325 S 
atom_frac            0.11107499           0.00360001           0.18731674 S 
atom_frac            0.17002502           0.19427500           0.02040000 S 
atom_frac            0.05572500           0.22575001           0.10373325 S 
atom_frac            0.02424998           0.07997500           0.18706674 S 
atom_frac            0.22517498           0.16666673           0.31250000 Ba 
atom_frac            0.08333326           0.05850827           0.39583325 Ba 
atom_frac            0.19149176           0.02482500           0.47916675 Ba 
atom_frac            0.08333326           0.09407498           0.27067500 Sn 
atom_frac            0.15592501           0.23925825           0.35400824 Sn 
atom_frac            0.01074174           0.16666673           0.43734175 Sn 
atom_frac            0.06525001           0.06177499           0.33485000 Cu 
atom_frac            0.18822502           0.00347501           0.41818326 Cu 
atom_frac            0.24652502           0.18475002           0.25151675 Cu 
atom_frac            0.17030001           0.02147500           0.29015000 Cu 
atom_frac            0.22852501           0.14882502           0.37348325 Cu 
atom_frac            0.10117498           0.07969999           0.45681674 Cu 
atom_frac            0.09547498           0.04342498           0.30019999 S 
atom_frac            0.20657500           0.05204999           0.38353325 S 
atom_frac            0.19795002           0.15452499           0.46686675 S 
atom_frac            0.21887500           0.04027498           0.32415000 S 
atom_frac            0.20972499           0.17860001           0.40748325 S 
atom_frac            0.07140001           0.03112501           0.49081674 S 
atom_frac            0.24640002           0.10747502           0.27065000 S 
atom_frac            0.14252499           0.13892501           0.35398325 S 
atom_frac            0.11107499           0.00360001           0.43731674 S 
atom_frac            0.17002502           0.19427500           0.27040000 S 
atom_frac            0.05572500           0.22575001           0.35373325 S 
atom_frac            0.02424998           0.07997500           0.43706674 S 
atom_frac            0.22517498           0.16666673           0.56250000 Ba 
atom_frac            0.08333326           0.05850827           0.64583324 Ba 
atom_frac            0.19149176           0.02482500           0.72916676 Ba 
atom_frac            0.08333326           0.09407498           0.52067500 Sn 
atom_frac            0.15592501           0.23925825           0.60400824 Sn 
atom_frac            0.01074174           0.16666673           0.68734176 Sn 
atom_frac            0.06525001           0.06177499           0.58485000 Cu 
atom_frac            0.18822502           0.00347501           0.66818326 Cu 
atom_frac            0.24652502           0.18475002           0.50151675 Cu 
atom_frac            0.17030001           0.02147500           0.54015000 Cu 
atom_frac            0.22852501           0.14882502           0.62348325 Cu 
atom_frac            0.10117498           0.07969999           0.70681674 Cu 
atom_frac            0.09547498           0.04342498           0.55019999 S 
atom_frac            0.20657500           0.05204999           0.63353325 S 
atom_frac            0.19795002           0.15452499           0.71686675 S 
atom_frac            0.21887500           0.04027498           0.57415000 S 
atom_frac            0.20972499           0.17860001           0.65748325 S 
atom_frac            0.07140001           0.03112501           0.74081674 S 
atom_frac            0.24640002           0.10747502           0.52065000 S 
atom_frac            0.14252499           0.13892501           0.60398325 S 
atom_frac            0.11107499           0.00360001           0.68731674 S 
atom_frac            0.17002502           0.19427500           0.52040000 S 
atom_frac            0.05572500           0.22575001           0.60373325 S 
atom_frac            0.02424998           0.07997500           0.68706674 S 
atom_frac            0.22517498           0.16666673           0.81250000 Ba 
atom_frac            0.08333326           0.05850827           0.89583324 Ba 
atom_frac            0.19149176           0.02482500           0.97916676 Ba 
atom_frac            0.08333326           0.09407498           0.77067500 Sn 
atom_frac            0.15592501           0.23925825           0.85400824 Sn 
atom_frac            0.01074174           0.16666673           0.93734176 Sn 
atom_frac            0.06525001           0.06177499           0.83485000 Cu 
atom_frac            0.18822502           0.00347501           0.91818326 Cu 
atom_frac            0.24652502           0.18475002           0.75151675 Cu 
atom_frac            0.17030001           0.02147500           0.79015000 Cu 
atom_frac            0.22852501           0.14882502           0.87348325 Cu 
atom_frac            0.10117498           0.07969999           0.95681674 Cu 
atom_frac            0.09547498           0.04342498           0.80019999 S 
atom_frac            0.20657500           0.05204999           0.88353325 S 
atom_frac            0.19795002           0.15452499           0.96686675 S 
atom_frac            0.21887500           0.04027498           0.82415000 S 
atom_frac            0.20972499           0.17860001           0.90748325 S 
atom_frac            0.07140001           0.03112501           0.99081674 S 
atom_frac            0.24640002           0.10747502           0.77065000 S 
atom_frac            0.14252499           0.13892501           0.85398325 S 
atom_frac            0.11107499           0.00360001           0.93731674 S 
atom_frac            0.17002502           0.19427500           0.77040000 S 
atom_frac            0.05572500           0.22575001           0.85373325 S 
atom_frac            0.02424998           0.07997500           0.93706674 S 
atom_frac            0.22517498           0.41666673           0.06250000 Ba 
atom_frac            0.08333326           0.30850827           0.14583325 Ba 
atom_frac            0.19149176           0.27482500           0.22916675 Ba 
atom_frac            0.08333326           0.34407498           0.02067500 Sn 
atom_frac            0.15592501           0.48925825           0.10400824 Sn 
atom_frac            0.01074174           0.41666673           0.18734175 Sn 
atom_frac            0.06525001           0.31177499           0.08485000 Cu 
atom_frac            0.18822502           0.25347500           0.16818326 Cu 
atom_frac            0.24652502           0.43475002           0.00151675 Cu 
atom_frac            0.17030001           0.27147500           0.04015000 Cu 
atom_frac            0.22852501           0.39882502           0.12348325 Cu 
atom_frac            0.10117498           0.32969999           0.20681674 Cu 
atom_frac            0.09547498           0.29342498           0.05019999 S 
atom_frac            0.20657500           0.30204999           0.13353325 S 
atom_frac            0.19795002           0.40452499           0.21686675 S 
atom_frac            0.21887500           0.29027498           0.07415000 S 
atom_frac            0.20972499           0.42860001           0.15748325 S 
atom_frac            0.07140001           0.28112501           0.24081674 S 
atom_frac            0.24640002           0.35747502           0.02065000 S 
atom_frac            0.14252499           0.38892501           0.10398325 S 
atom_frac            0.11107499           0.25360001           0.18731674 S 
atom_frac            0.17002502           0.44427500           0.02040000 S 
atom_frac            0.05572500           0.47575000           0.10373325 S 
atom_frac            0.02424998           0.32997500           0.18706674 S 
atom_frac            0.22517498           0.41666673           0.31250000 Ba 
atom_frac            0.08333326           0.30850827           0.39583325 Ba 
atom_frac            0.19149176           0.27482500           0.47916675 Ba 
atom_frac            0.08333326           0.34407498           0.27067500 Sn 
atom_frac            0.15592501           0.48925825           0.35400824 Sn 
atom_frac            0.01074174           0.41666673           0.43734175 Sn 
atom_frac            0.06525001           0.31177499           0.33485000 Cu 
atom_frac            0.18822502           0.25347500           0.41818326 Cu 
atom_frac            0.24652502           0.43475002           0.25151675 Cu 
atom_frac            0.17030001           0.27147500           0.29015000 Cu 
atom_frac            0.22852501           0.39882502           0.37348325 Cu 
atom_frac            0.10117498           0.32969999           0.45681674 Cu 
atom_frac            0.09547498           0.29342498           0.30019999 S 
atom_frac            0.20657500           0.30204999           0.38353325 S 
atom_frac            0.19795002           0.40452499           0.46686675 S 
atom_frac            0.21887500           0.29027498           0.32415000 S 
atom_frac            0.20972499           0.42860001           0.40748325 S 
atom_frac            0.07140001           0.28112501           0.49081674 S 
atom_frac            0.24640002           0.35747502           0.27065000 S 
atom_frac            0.14252499           0.38892501           0.35398325 S 
atom_frac            0.11107499           0.25360001           0.43731674 S 
atom_frac            0.17002502           0.44427500           0.27040000 S 
atom_frac            0.05572500           0.47575000           0.35373325 S 
atom_frac            0.02424998           0.32997500           0.43706674 S 
atom_frac            0.22517498           0.41666673           0.56250000 Ba 
atom_frac            0.08333326           0.30850827           0.64583324 Ba 
atom_frac            0.19149176           0.27482500           0.72916676 Ba 
atom_frac            0.08333326           0.34407498           0.52067500 Sn 
atom_frac            0.15592501           0.48925825           0.60400824 Sn 
atom_frac            0.01074174           0.41666673           0.68734176 Sn 
atom_frac            0.06525001           0.31177499           0.58485000 Cu 
atom_frac            0.18822502           0.25347500           0.66818326 Cu 
atom_frac            0.24652502           0.43475002           0.50151675 Cu 
atom_frac            0.17030001           0.27147500           0.54015000 Cu 
atom_frac            0.22852501           0.39882502           0.62348325 Cu 
atom_frac            0.10117498           0.32969999           0.70681674 Cu 
atom_frac            0.09547498           0.29342498           0.55019999 S 
atom_frac            0.20657500           0.30204999           0.63353325 S 
atom_frac            0.19795002           0.40452499           0.71686675 S 
atom_frac            0.21887500           0.29027498           0.57415000 S 
atom_frac            0.20972499           0.42860001           0.65748325 S 
atom_frac            0.07140001           0.28112501           0.74081674 S 
atom_frac            0.24640002           0.35747502           0.52065000 S 
atom_frac            0.14252499           0.38892501           0.60398325 S 
atom_frac            0.11107499           0.25360001           0.68731674 S 
atom_frac            0.17002502           0.44427500           0.52040000 S 
atom_frac            0.05572500           0.47575000           0.60373325 S 
atom_frac            0.02424998           0.32997500           0.68706674 S 
atom_frac            0.22517498           0.41666673           0.81250000 Ba 
atom_frac            0.08333326           0.30850827           0.89583324 Ba 
atom_frac            0.19149176           0.27482500           0.97916676 Ba 
atom_frac            0.08333326           0.34407498           0.77067500 Sn 
atom_frac            0.15592501           0.48925825           0.85400824 Sn 
atom_frac            0.01074174           0.41666673           0.93734176 Sn 
atom_frac            0.06525001           0.31177499           0.83485000 Cu 
atom_frac            0.18822502           0.25347500           0.91818326 Cu 
atom_frac            0.24652502           0.43475002           0.75151675 Cu 
atom_frac            0.17030001           0.27147500           0.79015000 Cu 
atom_frac            0.22852501           0.39882502           0.87348325 Cu 
atom_frac            0.10117498           0.32969999           0.95681674 Cu 
atom_frac            0.09547498           0.29342498           0.80019999 S 
atom_frac            0.20657500           0.30204999           0.88353325 S 
atom_frac            0.19795002           0.40452499           0.96686675 S 
atom_frac            0.21887500           0.29027498           0.82415000 S 
atom_frac            0.20972499           0.42860001           0.90748325 S 
atom_frac            0.07140001           0.28112501           0.99081674 S 
atom_frac            0.24640002           0.35747502           0.77065000 S 
atom_frac            0.14252499           0.38892501           0.85398325 S 
atom_frac            0.11107499           0.25360001           0.93731674 S 
atom_frac            0.17002502           0.44427500           0.77040000 S 
atom_frac            0.05572500           0.47575000           0.85373325 S 
atom_frac            0.02424998           0.32997500           0.93706674 S 
atom_frac            0.22517498           0.66666673           0.06250000 Ba 
atom_frac            0.08333326           0.55850827           0.14583325 Ba 
atom_frac            0.19149176           0.52482500           0.22916675 Ba 
atom_frac            0.08333326           0.59407498           0.02067500 Sn 
atom_frac            0.15592501           0.73925825           0.10400824 Sn 
atom_frac            0.01074174           0.66666673           0.18734175 Sn 
atom_frac            0.06525001           0.56177499           0.08485000 Cu 
atom_frac            0.18822502           0.50347500           0.16818326 Cu 
atom_frac            0.24652502           0.68475002           0.00151675 Cu 
atom_frac            0.17030001           0.52147500           0.04015000 Cu 
atom_frac            0.22852501           0.64882502           0.12348325 Cu 
atom_frac            0.10117498           0.57969999           0.20681674 Cu 
atom_frac            0.09547498           0.54342498           0.05019999 S 
atom_frac            0.20657500           0.55204999           0.13353325 S 
atom_frac            0.19795002           0.65452500           0.21686675 S 
atom_frac            0.21887500           0.54027498           0.07415000 S 
atom_frac            0.20972499           0.67860001           0.15748325 S 
atom_frac            0.07140001           0.53112501           0.24081674 S 
atom_frac            0.24640002           0.60747502           0.02065000 S 
atom_frac            0.14252499           0.63892501           0.10398325 S 
atom_frac            0.11107499           0.50360001           0.18731674 S 
atom_frac            0.17002502           0.69427500           0.02040000 S 
atom_frac            0.05572500           0.72575000           0.10373325 S 
atom_frac            0.02424998           0.57997500           0.18706674 S 
atom_frac            0.22517498           0.66666673           0.31250000 Ba 
atom_frac            0.08333326           0.55850827           0.39583325 Ba 
atom_frac            0.19149176           0.52482500           0.47916675 Ba 
atom_frac            0.08333326           0.59407498           0.27067500 Sn 
atom_frac            0.15592501           0.73925825           0.35400824 Sn 
atom_frac            0.01074174           0.66666673           0.43734175 Sn 
atom_frac            0.06525001           0.56177499           0.33485000 Cu 
atom_frac            0.18822502           0.50347500           0.41818326 Cu 
atom_frac            0.24652502           0.68475002           0.25151675 Cu 
atom_frac            0.17030001           0.52147500           0.29015000 Cu 
atom_frac            0.22852501           0.64882502           0.37348325 Cu 
atom_frac            0.10117498           0.57969999           0.45681674 Cu 
atom_frac            0.09547498           0.54342498           0.30019999 S 
atom_frac            0.20657500           0.55204999           0.38353325 S 
atom_frac            0.19795002           0.65452500           0.46686675 S 
atom_frac            0.21887500           0.54027498           0.32415000 S 
atom_frac            0.20972499           0.67860001           0.40748325 S 
atom_frac            0.07140001           0.53112501           0.49081674 S 
atom_frac            0.24640002           0.60747502           0.27065000 S 
atom_frac            0.14252499           0.63892501           0.35398325 S 
atom_frac            0.11107499           0.50360001           0.43731674 S 
atom_frac            0.17002502           0.69427500           0.27040000 S 
atom_frac            0.05572500           0.72575000           0.35373325 S 
atom_frac            0.02424998           0.57997500           0.43706674 S 
atom_frac            0.22517498           0.66666673           0.56250000 Ba 
atom_frac            0.08333326           0.55850827           0.64583324 Ba 
atom_frac            0.19149176           0.52482500           0.72916676 Ba 
atom_frac            0.08333326           0.59407498           0.52067500 Sn 
atom_frac            0.15592501           0.73925825           0.60400824 Sn 
atom_frac            0.01074174           0.66666673           0.68734176 Sn 
atom_frac            0.06525001           0.56177499           0.58485000 Cu 
atom_frac            0.18822502           0.50347500           0.66818326 Cu 
atom_frac            0.24652502           0.68475002           0.50151675 Cu 
atom_frac            0.17030001           0.52147500           0.54015000 Cu 
atom_frac            0.22852501           0.64882502           0.62348325 Cu 
atom_frac            0.10117498           0.57969999           0.70681674 Cu 
atom_frac            0.09547498           0.54342498           0.55019999 S 
atom_frac            0.20657500           0.55204999           0.63353325 S 
atom_frac            0.19795002           0.65452500           0.71686675 S 
atom_frac            0.21887500           0.54027498           0.57415000 S 
atom_frac            0.20972499           0.67860001           0.65748325 S 
atom_frac            0.07140001           0.53112501           0.74081674 S 
atom_frac            0.24640002           0.60747502           0.52065000 S 
atom_frac            0.14252499           0.63892501           0.60398325 S 
atom_frac            0.11107499           0.50360001           0.68731674 S 
atom_frac            0.17002502           0.69427500           0.52040000 S 
atom_frac            0.05572500           0.72575000           0.60373325 S 
atom_frac            0.02424998           0.57997500           0.68706674 S 
atom_frac            0.22517498           0.66666673           0.81250000 Ba 
atom_frac            0.08333326           0.55850827           0.89583324 Ba 
atom_frac            0.19149176           0.52482500           0.97916676 Ba 
atom_frac            0.08333326           0.59407498           0.77067500 Sn 
atom_frac            0.15592501           0.73925825           0.85400824 Sn 
atom_frac            0.01074174           0.66666673           0.93734176 Sn 
atom_frac            0.06525001           0.56177499           0.83485000 Cu 
atom_frac            0.18822502           0.50347500           0.91818326 Cu 
atom_frac            0.24652502           0.68475002           0.75151675 Cu 
atom_frac            0.17030001           0.52147500           0.79015000 Cu 
atom_frac            0.22852501           0.64882502           0.87348325 Cu 
atom_frac            0.10117498           0.57969999           0.95681674 Cu 
atom_frac            0.09547498           0.54342498           0.80019999 S 
atom_frac            0.20657500           0.55204999           0.88353325 S 
atom_frac            0.19795002           0.65452500           0.96686675 S 
atom_frac            0.21887500           0.54027498           0.82415000 S 
atom_frac            0.20972499           0.67860001           0.90748325 S 
atom_frac            0.07140001           0.53112501           0.99081674 S 
atom_frac            0.24640002           0.60747502           0.77065000 S 
atom_frac            0.14252499           0.63892501           0.85398325 S 
atom_frac            0.11107499           0.50360001           0.93731674 S 
atom_frac            0.17002502           0.69427500           0.77040000 S 
atom_frac            0.05572500           0.72575000           0.85373325 S 
atom_frac            0.02424998           0.57997500           0.93706674 S 
atom_frac            0.22517498           0.91666673           0.06250000 Ba 
atom_frac            0.08333326           0.80850827           0.14583325 Ba 
atom_frac            0.19149176           0.77482500           0.22916675 Ba 
atom_frac            0.08333326           0.84407498           0.02067500 Sn 
atom_frac            0.15592501           0.98925825           0.10400824 Sn 
atom_frac            0.01074174           0.91666673           0.18734175 Sn 
atom_frac            0.06525001           0.81177499           0.08485000 Cu 
atom_frac            0.18822502           0.75347500           0.16818326 Cu 
atom_frac            0.24652502           0.93475002           0.00151675 Cu 
atom_frac            0.17030001           0.77147500           0.04015000 Cu 
atom_frac            0.22852501           0.89882502           0.12348325 Cu 
atom_frac            0.10117498           0.82969999           0.20681674 Cu 
atom_frac            0.09547498           0.79342498           0.05019999 S 
atom_frac            0.20657500           0.80204999           0.13353325 S 
atom_frac            0.19795002           0.90452500           0.21686675 S 
atom_frac            0.21887500           0.79027498           0.07415000 S 
atom_frac            0.20972499           0.92860001           0.15748325 S 
atom_frac            0.07140001           0.78112501           0.24081674 S 
atom_frac            0.24640002           0.85747502           0.02065000 S 
atom_frac            0.14252499           0.88892501           0.10398325 S 
atom_frac            0.11107499           0.75360001           0.18731674 S 
atom_frac            0.17002502           0.94427500           0.02040000 S 
atom_frac            0.05572500           0.97575000           0.10373325 S 
atom_frac            0.02424998           0.82997500           0.18706674 S 
atom_frac            0.22517498           0.91666673           0.31250000 Ba 
atom_frac            0.08333326           0.80850827           0.39583325 Ba 
atom_frac            0.19149176           0.77482500           0.47916675 Ba 
atom_frac            0.08333326           0.84407498           0.27067500 Sn 
atom_frac            0.15592501           0.98925825           0.35400824 Sn 
atom_frac            0.01074174           0.91666673           0.43734175 Sn 
atom_frac            0.06525001           0.81177499           0.33485000 Cu 
atom_frac            0.18822502           0.75347500           0.41818326 Cu 
atom_frac            0.24652502           0.93475002           0.25151675 Cu 
atom_frac            0.17030001           0.77147500           0.29015000 Cu 
atom_frac            0.22852501           0.89882502           0.37348325 Cu 
atom_frac            0.10117498           0.82969999           0.45681674 Cu 
atom_frac            0.09547498           0.79342498           0.30019999 S 
atom_frac            0.20657500           0.80204999           0.38353325 S 
atom_frac            0.19795002           0.90452500           0.46686675 S 
atom_frac            0.21887500           0.79027498           0.32415000 S 
atom_frac            0.20972499           0.92860001           0.40748325 S 
atom_frac            0.07140001           0.78112501           0.49081674 S 
atom_frac            0.24640002           0.85747502           0.27065000 S 
atom_frac            0.14252499           0.88892501           0.35398325 S 
atom_frac            0.11107499           0.75360001           0.43731674 S 
atom_frac            0.17002502           0.94427500           0.27040000 S 
atom_frac            0.05572500           0.97575000           0.35373325 S 
atom_frac            0.02424998           0.82997500           0.43706674 S 
atom_frac            0.22517498           0.91666673           0.56250000 Ba 
atom_frac            0.08333326           0.80850827           0.64583324 Ba 
atom_frac            0.19149176           0.77482500           0.72916676 Ba 
atom_frac            0.08333326           0.84407498           0.52067500 Sn 
atom_frac            0.15592501           0.98925825           0.60400824 Sn 
atom_frac            0.01074174           0.91666673           0.68734176 Sn 
atom_frac            0.06525001           0.81177499           0.58485000 Cu 
atom_frac            0.18822502           0.75347500           0.66818326 Cu 
atom_frac            0.24652502           0.93475002           0.50151675 Cu 
atom_frac            0.17030001           0.77147500           0.54015000 Cu 
atom_frac            0.22852501           0.89882502           0.62348325 Cu 
atom_frac            0.10117498           0.82969999           0.70681674 Cu 
atom_frac            0.09547498           0.79342498           0.55019999 S 
atom_frac            0.20657500           0.80204999           0.63353325 S 
atom_frac            0.19795002           0.90452500           0.71686675 S 
atom_frac            0.21887500           0.79027498           0.57415000 S 
atom_frac            0.20972499           0.92860001           0.65748325 S 
atom_frac            0.07140001           0.78112501           0.74081674 S 
atom_frac            0.24640002           0.85747502           0.52065000 S 
atom_frac            0.14252499           0.88892501           0.60398325 S 
atom_frac            0.11107499           0.75360001           0.68731674 S 
atom_frac            0.17002502           0.94427500           0.52040000 S 
atom_frac            0.05572500           0.97575000           0.60373325 S 
atom_frac            0.02424998           0.82997500           0.68706674 S 
atom_frac            0.22517498           0.91666673           0.81250000 Ba 
atom_frac            0.08333326           0.80850827           0.89583324 Ba 
atom_frac            0.19149176           0.77482500           0.97916676 Ba 
atom_frac            0.08333326           0.84407498           0.77067500 Sn 
atom_frac            0.15592501           0.98925825           0.85400824 Sn 
atom_frac            0.01074174           0.91666673           0.93734176 Sn 
atom_frac            0.06525001           0.81177499           0.83485000 Cu 
atom_frac            0.18822502           0.75347500           0.91818326 Cu 
atom_frac            0.24652502           0.93475002           0.75151675 Cu 
atom_frac            0.17030001           0.77147500           0.79015000 Cu 
atom_frac            0.22852501           0.89882502           0.87348325 Cu 
atom_frac            0.10117498           0.82969999           0.95681674 Cu 
atom_frac            0.09547498           0.79342498           0.80019999 S 
atom_frac            0.20657500           0.80204999           0.88353325 S 
atom_frac            0.19795002           0.90452500           0.96686675 S 
atom_frac            0.21887500           0.79027498           0.82415000 S 
atom_frac            0.20972499           0.92860001           0.90748325 S 
atom_frac            0.07140001           0.78112501           0.99081674 S 
atom_frac            0.24640002           0.85747502           0.77065000 S 
atom_frac            0.14252499           0.88892501           0.85398325 S 
atom_frac            0.11107499           0.75360001           0.93731674 S 
atom_frac            0.17002502           0.94427500           0.77040000 S 
atom_frac            0.05572500           0.97575000           0.85373325 S 
atom_frac            0.02424998           0.82997500           0.93706674 S 