lattice_vector           11.02796800          -6.36700000           0.00000000
lattice_vector            0.00000000          12.73400000           0.00000000
lattice_vector            0.00000000           0.00000000          31.66600000

atom_frac            0.45034997           0.33333346           0.12500000 Ba 
atom_frac            0.16666651           0.11701654           0.29166649 Ba 
atom_frac            0.38298352           0.04965000           0.45833351 Ba 
atom_frac            0.16666651           0.18814997           0.04135000 Sn 
atom_frac            0.31185001           0.47851649           0.20801649 Sn 
atom_frac            0.02148347           0.33333346           0.37468351 Sn 
atom_frac            0.13050001           0.12354999           0.16969999 Cu 
atom_frac            0.37645004           0.00695001           0.33636651 Cu 
atom_frac            0.49305003           0.36950004           0.00303351 Cu 
atom_frac            0.34060001           0.04294999           0.08030000 Cu 
atom_frac            0.45705002           0.29765003           0.24696650 Cu 
atom_frac            0.20234997           0.15939997           0.41363349 Cu 
atom_frac            0.19094996           0.08684996           0.10039998 S 
atom_frac            0.41315000           0.10409997           0.26706651 S 
atom_frac            0.39590004           0.30904999           0.43373350 S 
atom_frac            0.43775000           0.08054997           0.14830001 S 
atom_frac            0.41944999           0.35720002           0.31496650 S 
atom_frac            0.14280002           0.06225001           0.48163348 S 
atom_frac            0.49280004           0.21495004           0.04130001 S 
atom_frac            0.28504998           0.27785003           0.20796650 S 
atom_frac            0.22214999           0.00720001           0.37463348 S 
atom_frac            0.34005005           0.38854999           0.04080001 S 
atom_frac            0.11144999           0.45150001           0.20746650 S 
atom_frac            0.04849996           0.15995000           0.37413348 S 
atom_frac            0.45034997           0.33333346           0.62500000 Ba 
atom_frac            0.16666651           0.11701654           0.79166649 Ba 
atom_frac            0.38298352           0.04965000           0.95833351 Ba 
atom_frac            0.16666651           0.18814997           0.54135000 Sn 
atom_frac            0.31185001           0.47851649           0.70801649 Sn 
atom_frac            0.02148347           0.33333346           0.87468351 Sn 
atom_frac            0.13050001           0.12354999           0.66969999 Cu 
atom_frac            0.37645004           0.00695001           0.83636651 Cu 
atom_frac            0.49305003           0.36950004           0.50303350 Cu 
atom_frac            0.34060001           0.04294999           0.58030001 Cu 
atom_frac            0.45705002           0.29765003           0.74696650 Cu 
atom_frac            0.20234997           0.15939997           0.91363349 Cu 
atom_frac            0.19094996           0.08684996           0.60039999 S 
atom_frac            0.41315000           0.10409997           0.76706651 S 
atom_frac            0.39590004           0.30904999           0.93373350 S 
atom_frac            0.43775000           0.08054997           0.64830001 S 
atom_frac            0.41944999           0.35720002           0.81496649 S 
atom_frac            0.14280002           0.06225001           0.98163348 S 
atom_frac            0.49280004           0.21495004           0.54130000 S 
atom_frac            0.28504998           0.27785003           0.70796649 S 
atom_frac            0.22214999           0.00720001           0.87463348 S 
atom_frac            0.34005005           0.38854999           0.54080001 S 
atom_frac            0.11144999           0.45150001           0.70746650 S 
atom_frac            0.04849996           0.15995000           0.87413348 S 
atom_frac            0.45034997           0.83333346           0.12500000 Ba 
atom_frac            0.16666651           0.61701655           0.29166649 Ba 
atom_frac            0.38298352           0.54965000           0.45833351 Ba 
atom_frac            0.16666651           0.68814997           0.04135000 Sn 
atom_frac            0.31185001           0.97851650           0.20801649 Sn 
atom_frac            0.02148347           0.83333346           0.37468351 Sn 
atom_frac            0.13050001           0.62354999           0.16969999 Cu 
atom_frac            0.37645004           0.50695001           0.33636651 Cu 
atom_frac            0.49305003           0.86950004           0.00303351 Cu 
atom_frac            0.34060001           0.54294999           0.08030000 Cu 
atom_frac            0.45705002           0.79765003           0.24696650 Cu 
atom_frac            0.20234997           0.65939998           0.41363349 Cu 
atom_frac            0.19094996           0.58684996           0.10039998 S 
atom_frac            0.41315000           0.60409998           0.26706651 S 
atom_frac            0.39590004           0.80904999           0.43373350 S 
atom_frac            0.43775000           0.58054997           0.14830001 S 
atom_frac            0.41944999           0.85720002           0.31496650 S 
atom_frac            0.14280002           0.56225002           0.48163348 S 
atom_frac            0.49280004           0.71495004           0.04130001 S 
atom_frac            0.28504998           0.77785003           0.20796650 S 
atom_frac            0.22214999           0.50720002           0.37463348 S 
atom_frac            0.34005005           0.88854999           0.04080001 S 
atom_frac            0.11144999           0.95150001           0.20746650 S 
atom_frac            0.04849996           0.65995000           0.37413348 S 
atom_frac            0.45034997           0.83333346           0.62500000 Ba 
atom_frac            0.16666651           0.61701655           0.79166649 Ba 
atom_frac            0.38298352           0.54965000           0.95833351 Ba 
atom_frac            0.16666651           0.68814997           0.54135000 Sn 
atom_frac            0.31185001           0.97851650           0.70801649 Sn 
atom_frac            0.02148347           0.83333346           0.87468351 Sn 
atom_frac            0.13050001           0.62354999           0.66969999 Cu 
atom_frac            0.37645004           0.50695001           0.83636651 Cu 
atom_frac            0.49305003           0.86950004           0.50303350 Cu 
atom_frac            0.34060001           0.54294999           0.58030001 Cu 
atom_frac            0.45705002           0.79765003           0.74696650 Cu 
atom_frac            0.20234997           0.65939998           0.91363349 Cu 
atom_frac            0.19094996           0.58684996           0.60039999 S 
atom_frac            0.41315000           0.60409998           0.76706651 S 
atom_frac            0.39590004           0.80904999           0.93373350 S 
atom_frac            0.43775000           0.58054997           0.64830001 S 
atom_frac            0.41944999           0.85720002           0.81496649 S 
atom_frac            0.14280002           0.56225002           0.98163348 S 
atom_frac            0.49280004           0.71495004           0.54130000 S 
atom_frac            0.28504998           0.77785003           0.70796649 S 
atom_frac            0.22214999           0.50720002           0.87463348 S 
atom_frac            0.34005005           0.88854999           0.54080001 S 
atom_frac            0.11144999           0.95150001           0.70746650 S 
atom_frac            0.04849996           0.65995000           0.87413348 S 
atom_frac            0.95034997           0.33333346           0.12500000 Ba 
atom_frac            0.66666651           0.11701654           0.29166649 Ba 
atom_frac            0.88298352           0.04965000           0.45833351 Ba 
atom_frac            0.66666651           0.18814997           0.04135000 Sn 
atom_frac            0.81185001           0.47851649           0.20801649 Sn 
atom_frac            0.52148347           0.33333346           0.37468351 Sn 
atom_frac            0.63050001           0.12354999           0.16969999 Cu 
atom_frac            0.87645004           0.00695001           0.33636651 Cu 
atom_frac            0.99305003           0.36950004           0.00303351 Cu 
atom_frac            0.84060001           0.04294999           0.08030000 Cu 
atom_frac            0.95705002           0.29765003           0.24696650 Cu 
atom_frac            0.70234997           0.15939997           0.41363349 Cu 
atom_frac            0.69094996           0.08684996           0.10039998 S 
atom_frac            0.91315000           0.10409997           0.26706651 S 
atom_frac            0.89590004           0.30904999           0.43373350 S 
atom_frac            0.93775000           0.08054997           0.14830001 S 
atom_frac            0.91944998           0.35720002           0.31496650 S 
atom_frac            0.64280001           0.06225001           0.48163348 S 
atom_frac            0.99280004           0.21495004           0.04130001 S 
atom_frac            0.78504997           0.27785003           0.20796650 S 
atom_frac            0.72214999           0.00720001           0.37463348 S 
atom_frac            0.84005005           0.38854999           0.04080001 S 
atom_frac            0.61144999           0.45150001           0.20746650 S 
atom_frac            0.54849996           0.15995000           0.37413348 S 
atom_frac            0.95034997           0.33333346           0.62500000 Ba 
atom_frac            0.66666651           0.11701654           0.79166649 Ba 
atom_frac            0.88298352           0.04965000           0.95833351 Ba 
atom_frac            0.66666651           0.18814997           0.54135000 Sn 
atom_frac            0.81185001           0.47851649           0.70801649 Sn 
atom_frac            0.52148347           0.33333346           0.87468351 Sn 
atom_frac            0.63050001           0.12354999           0.66969999 Cu 
atom_frac            0.87645004           0.00695001           0.83636651 Cu 
atom_frac            0.99305003           0.36950004           0.50303350 Cu 
atom_frac            0.84060001           0.04294999           0.58030001 Cu 
atom_frac            0.95705002           0.29765003           0.74696650 Cu 
atom_frac            0.70234997           0.15939997           0.91363349 Cu 
atom_frac            0.69094996           0.08684996           0.60039999 S 
atom_frac            0.91315000           0.10409997           0.76706651 S 
atom_frac            0.89590004           0.30904999           0.93373350 S 
atom_frac            0.93775000           0.08054997           0.64830001 S 
atom_frac            0.91944998           0.35720002           0.81496649 S 
atom_frac            0.64280001           0.06225001           0.98163348 S 
atom_frac            0.99280004           0.21495004           0.54130000 S 
atom_frac            0.78504997           0.27785003           0.70796649 S 
atom_frac            0.72214999           0.00720001           0.87463348 S 
atom_frac            0.84005005           0.38854999           0.54080001 S 
atom_frac            0.61144999           0.45150001           0.70746650 S 
atom_frac            0.54849996           0.15995000           0.87413348 S 
atom_frac            0.95034997           0.83333346           0.12500000 Ba 
atom_frac            0.66666651           0.61701655           0.29166649 Ba 
atom_frac            0.88298352           0.54965000           0.45833351 Ba 
atom_frac            0.66666651           0.68814997           0.04135000 Sn 
atom_frac            0.81185001           0.97851650           0.20801649 Sn 
atom_frac            0.52148347           0.83333346           0.37468351 Sn 
atom_frac            0.63050001           0.62354999           0.16969999 Cu 
atom_frac            0.87645004           0.50695001           0.33636651 Cu 
atom_frac            0.99305003           0.86950004           0.00303351 Cu 
atom_frac            0.84060001           0.54294999           0.08030000 Cu 
atom_frac            0.95705002           0.79765003           0.24696650 Cu 
atom_frac            0.70234997           0.65939998           0.41363349 Cu 
atom_frac            0.69094996           0.58684996           0.10039998 S 
atom_frac            0.91315000           0.60409998           0.26706651 S 
atom_frac            0.89590004           0.80904999           0.43373350 S 
atom_frac            0.93775000           0.58054997           0.14830001 S 
atom_frac            0.91944998           0.85720002           0.31496650 S 
atom_frac            0.64280001           0.56225002           0.48163348 S 
atom_frac            0.99280004           0.71495004           0.04130001 S 
atom_frac            0.78504997           0.77785003           0.20796650 S 
atom_frac            0.72214999           0.50720002           0.37463348 S 
atom_frac            0.84005005           0.88854999           0.04080001 S 
atom_frac            0.61144999           0.95150001           0.20746650 S 
atom_frac            0.54849996           0.65995000           0.37413348 S 
atom_frac            0.95034997           0.83333346           0.62500000 Ba 
atom_frac            0.66666651           0.61701655           0.79166649 Ba 
atom_frac            0.88298352           0.54965000           0.95833351 Ba 
atom_frac            0.66666651           0.68814997           0.54135000 Sn 
atom_frac            0.81185001           0.97851650           0.70801649 Sn 
atom_frac            0.52148347           0.83333346           0.87468351 Sn 
atom_frac            0.63050001           0.62354999           0.66969999 Cu 
atom_frac            0.87645004           0.50695001           0.83636651 Cu 
atom_frac            0.99305003           0.86950004           0.50303350 Cu 
atom_frac            0.84060001           0.54294999           0.58030001 Cu 
atom_frac            0.95705002           0.79765003           0.74696650 Cu 
atom_frac            0.70234997           0.65939998           0.91363349 Cu 
atom_frac            0.69094996           0.58684996           0.60039999 S 
atom_frac            0.91315000           0.60409998           0.76706651 S 
atom_frac            0.89590004           0.80904999           0.93373350 S 
atom_frac            0.93775000           0.58054997           0.64830001 S 
atom_frac            0.91944998           0.85720002           0.81496649 S 
atom_frac            0.64280001           0.56225002           0.98163348 S 
atom_frac            0.99280004           0.71495004           0.54130000 S 
atom_frac            0.78504997           0.77785003           0.70796649 S 
atom_frac            0.72214999           0.50720002           0.87463348 S 
atom_frac            0.84005005           0.88854999           0.54080001 S 
atom_frac            0.61144999           0.95150001           0.70746650 S 
atom_frac            0.54849996           0.65995000           0.87413348 S 
