lattice_vector           27.56992000         -15.91750000           0.00000000
lattice_vector            0.00000000          31.83500000           0.00000000
lattice_vector            0.00000000           0.00000000          79.16500000

atom_frac            0.18013999           0.13333338           0.05000000 Ba 
atom_frac            0.06666661           0.04680662           0.11666660 Ba 
atom_frac            0.15319341           0.01986000           0.18333340 Ba 
atom_frac            0.06666661           0.07525999           0.01654000 Sn 
atom_frac            0.12474001           0.19140660           0.08320659 Sn 
atom_frac            0.00859339           0.13333338           0.14987340 Sn 
atom_frac            0.05220001           0.04942000           0.06788000 Cu 
atom_frac            0.15058002           0.00278000           0.13454661 Cu 
atom_frac            0.19722001           0.14780002           0.00121340 Cu 
atom_frac            0.13624000           0.01718000           0.03212000 Cu 
atom_frac            0.18282001           0.11906001           0.09878660 Cu 
atom_frac            0.08093999           0.06375999           0.16545339 Cu 
atom_frac            0.07637998           0.03473998           0.04015999 S 
atom_frac            0.16526000           0.04163999           0.10682660 S 
atom_frac            0.15836002           0.12362000           0.17349340 S 
atom_frac            0.17510000           0.03221999           0.05932000 S 
atom_frac            0.16777999           0.14288001           0.12598660 S 
atom_frac            0.05712001           0.02490001           0.19265339 S 
atom_frac            0.19712001           0.08598002           0.01652000 S 
atom_frac            0.11401999           0.11114001           0.08318660 S 
atom_frac            0.08886000           0.00288001           0.14985339 S 
atom_frac            0.13602002           0.15542000           0.01632000 S 
atom_frac            0.04458000           0.18060000           0.08298660 S 
atom_frac            0.01939998           0.06398000           0.14965339 S 
atom_frac            0.18013999           0.13333338           0.25000000 Ba 
atom_frac            0.06666661           0.04680662           0.31666660 Ba 
atom_frac            0.15319341           0.01986000           0.38333340 Ba 
atom_frac            0.06666661           0.07525999           0.21654000 Sn 
atom_frac            0.12474001           0.19140660           0.28320659 Sn 
atom_frac            0.00859339           0.13333338           0.34987340 Sn 
atom_frac            0.05220001           0.04942000           0.26788000 Cu 
atom_frac            0.15058002           0.00278000           0.33454661 Cu 
atom_frac            0.19722001           0.14780002           0.20121340 Cu 
atom_frac            0.13624000           0.01718000           0.23212000 Cu 
atom_frac            0.18282001           0.11906001           0.29878660 Cu 
atom_frac            0.08093999           0.06375999           0.36545339 Cu 
atom_frac            0.07637998           0.03473998           0.24015999 S 
atom_frac            0.16526000           0.04163999           0.30682660 S 
atom_frac            0.15836002           0.12362000           0.37349340 S 
atom_frac            0.17510000           0.03221999           0.25932000 S 
atom_frac            0.16777999           0.14288001           0.32598660 S 
atom_frac            0.05712001           0.02490001           0.39265339 S 
atom_frac            0.19712001           0.08598002           0.21652000 S 
atom_frac            0.11401999           0.11114001           0.28318660 S 
atom_frac            0.08886000           0.00288001           0.34985339 S 
atom_frac            0.13602002           0.15542000           0.21632000 S 
atom_frac            0.04458000           0.18060000           0.28298660 S 
atom_frac            0.01939998           0.06398000           0.34965339 S 
atom_frac            0.18013999           0.13333338           0.45000000 Ba 
atom_frac            0.06666661           0.04680662           0.51666660 Ba 
atom_frac            0.15319341           0.01986000           0.58333340 Ba 
atom_frac            0.06666661           0.07525999           0.41654000 Sn 
atom_frac            0.12474001           0.19140660           0.48320659 Sn 
atom_frac            0.00859339           0.13333338           0.54987340 Sn 
atom_frac            0.05220001           0.04942000           0.46788000 Cu 
atom_frac            0.15058002           0.00278000           0.53454661 Cu 
atom_frac            0.19722001           0.14780002           0.40121340 Cu 
atom_frac            0.13624000           0.01718000           0.43212000 Cu 
atom_frac            0.18282001           0.11906001           0.49878660 Cu 
atom_frac            0.08093999           0.06375999           0.56545339 Cu 
atom_frac            0.07637998           0.03473998           0.44015999 S 
atom_frac            0.16526000           0.04163999           0.50682660 S 
atom_frac            0.15836002           0.12362000           0.57349340 S 
atom_frac            0.17510000           0.03221999           0.45932000 S 
atom_frac            0.16777999           0.14288001           0.52598660 S 
atom_frac            0.05712001           0.02490001           0.59265339 S 
atom_frac            0.19712001           0.08598002           0.41652000 S 
atom_frac            0.11401999           0.11114001           0.48318660 S 
atom_frac            0.08886000           0.00288001           0.54985339 S 
atom_frac            0.13602002           0.15542000           0.41632000 S 
atom_frac            0.04458000           0.18060000           0.48298660 S 
atom_frac            0.01939998           0.06398000           0.54965339 S 
atom_frac            0.18013999           0.13333338           0.65000000 Ba 
atom_frac            0.06666661           0.04680662           0.71666660 Ba 
atom_frac            0.15319341           0.01986000           0.78333340 Ba 
atom_frac            0.06666661           0.07525999           0.61654000 Sn 
atom_frac            0.12474001           0.19140660           0.68320659 Sn 
atom_frac            0.00859339           0.13333338           0.74987340 Sn 
atom_frac            0.05220001           0.04942000           0.66788000 Cu 
atom_frac            0.15058002           0.00278000           0.73454661 Cu 
atom_frac            0.19722001           0.14780002           0.60121340 Cu 
atom_frac            0.13624000           0.01718000           0.63212000 Cu 
atom_frac            0.18282001           0.11906001           0.69878660 Cu 
atom_frac            0.08093999           0.06375999           0.76545339 Cu 
atom_frac            0.07637998           0.03473998           0.64015999 S 
atom_frac            0.16526000           0.04163999           0.70682660 S 
atom_frac            0.15836002           0.12362000           0.77349340 S 
atom_frac            0.17510000           0.03221999           0.65932000 S 
atom_frac            0.16777999           0.14288001           0.72598660 S 
atom_frac            0.05712001           0.02490001           0.79265339 S 
atom_frac            0.19712001           0.08598002           0.61652000 S 
atom_frac            0.11401999           0.11114001           0.68318660 S 
atom_frac            0.08886000           0.00288001           0.74985339 S 
atom_frac            0.13602002           0.15542000           0.61632000 S 
atom_frac            0.04458000           0.18060000           0.68298660 S 
atom_frac            0.01939998           0.06398000           0.74965339 S 
atom_frac            0.18013999           0.13333338           0.85000000 Ba 
atom_frac            0.06666661           0.04680662           0.91666660 Ba 
atom_frac            0.15319341           0.01986000           0.98333340 Ba 
atom_frac            0.06666661           0.07525999           0.81654000 Sn 
atom_frac            0.12474001           0.19140660           0.88320659 Sn 
atom_frac            0.00859339           0.13333338           0.94987340 Sn 
atom_frac            0.05220001           0.04942000           0.86788000 Cu 
atom_frac            0.15058002           0.00278000           0.93454661 Cu 
atom_frac            0.19722001           0.14780002           0.80121340 Cu 
atom_frac            0.13624000           0.01718000           0.83212000 Cu 
atom_frac            0.18282001           0.11906001           0.89878660 Cu 
atom_frac            0.08093999           0.06375999           0.96545339 Cu 
atom_frac            0.07637998           0.03473998           0.84015999 S 
atom_frac            0.16526000           0.04163999           0.90682660 S 
atom_frac            0.15836002           0.12362000           0.97349340 S 
atom_frac            0.17510000           0.03221999           0.85932000 S 
atom_frac            0.16777999           0.14288001           0.92598660 S 
atom_frac            0.05712001           0.02490001           0.99265339 S 
atom_frac            0.19712001           0.08598002           0.81652000 S 
atom_frac            0.11401999           0.11114001           0.88318660 S 
atom_frac            0.08886000           0.00288001           0.94985339 S 
atom_frac            0.13602002           0.15542000           0.81632000 S 
atom_frac            0.04458000           0.18060000           0.88298660 S 
atom_frac            0.01939998           0.06398000           0.94965339 S 
atom_frac            0.18013999           0.33333338           0.05000000 Ba 
atom_frac            0.06666661           0.24680662           0.11666660 Ba 
atom_frac            0.15319341           0.21986000           0.18333340 Ba 
atom_frac            0.06666661           0.27525999           0.01654000 Sn 
atom_frac            0.12474001           0.39140660           0.08320659 Sn 
atom_frac            0.00859339           0.33333338           0.14987340 Sn 
atom_frac            0.05220001           0.24942000           0.06788000 Cu 
atom_frac            0.15058002           0.20278000           0.13454661 Cu 
atom_frac            0.19722001           0.34780002           0.00121340 Cu 
atom_frac            0.13624000           0.21718000           0.03212000 Cu 
atom_frac            0.18282001           0.31906001           0.09878660 Cu 
atom_frac            0.08093999           0.26375999           0.16545339 Cu 
atom_frac            0.07637998           0.23473998           0.04015999 S 
atom_frac            0.16526000           0.24163999           0.10682660 S 
atom_frac            0.15836002           0.32362000           0.17349340 S 
atom_frac            0.17510000           0.23221999           0.05932000 S 
atom_frac            0.16777999           0.34288001           0.12598660 S 
atom_frac            0.05712001           0.22490001           0.19265339 S 
atom_frac            0.19712001           0.28598002           0.01652000 S 
atom_frac            0.11401999           0.31114001           0.08318660 S 
atom_frac            0.08886000           0.20288001           0.14985339 S 
atom_frac            0.13602002           0.35542000           0.01632000 S 
atom_frac            0.04458000           0.38060000           0.08298660 S 
atom_frac            0.01939998           0.26398000           0.14965339 S 
atom_frac            0.18013999           0.33333338           0.25000000 Ba 
atom_frac            0.06666661           0.24680662           0.31666660 Ba 
atom_frac            0.15319341           0.21986000           0.38333340 Ba 
atom_frac            0.06666661           0.27525999           0.21654000 Sn 
atom_frac            0.12474001           0.39140660           0.28320659 Sn 
atom_frac            0.00859339           0.33333338           0.34987340 Sn 
atom_frac            0.05220001           0.24942000           0.26788000 Cu 
atom_frac            0.15058002           0.20278000           0.33454661 Cu 
atom_frac            0.19722001           0.34780002           0.20121340 Cu 
atom_frac            0.13624000           0.21718000           0.23212000 Cu 
atom_frac            0.18282001           0.31906001           0.29878660 Cu 
atom_frac            0.08093999           0.26375999           0.36545339 Cu 
atom_frac            0.07637998           0.23473998           0.24015999 S 
atom_frac            0.16526000           0.24163999           0.30682660 S 
atom_frac            0.15836002           0.32362000           0.37349340 S 
atom_frac            0.17510000           0.23221999           0.25932000 S 
atom_frac            0.16777999           0.34288001           0.32598660 S 
atom_frac            0.05712001           0.22490001           0.39265339 S 
atom_frac            0.19712001           0.28598002           0.21652000 S 
atom_frac            0.11401999           0.31114001           0.28318660 S 
atom_frac            0.08886000           0.20288001           0.34985339 S 
atom_frac            0.13602002           0.35542000           0.21632000 S 
atom_frac            0.04458000           0.38060000           0.28298660 S 
atom_frac            0.01939998           0.26398000           0.34965339 S 
atom_frac            0.18013999           0.33333338           0.45000000 Ba 
atom_frac            0.06666661           0.24680662           0.51666660 Ba 
atom_frac            0.15319341           0.21986000           0.58333340 Ba 
atom_frac            0.06666661           0.27525999           0.41654000 Sn 
atom_frac            0.12474001           0.39140660           0.48320659 Sn 
atom_frac            0.00859339           0.33333338           0.54987340 Sn 
atom_frac            0.05220001           0.24942000           0.46788000 Cu 
atom_frac            0.15058002           0.20278000           0.53454661 Cu 
atom_frac            0.19722001           0.34780002           0.40121340 Cu 
atom_frac            0.13624000           0.21718000           0.43212000 Cu 
atom_frac            0.18282001           0.31906001           0.49878660 Cu 
atom_frac            0.08093999           0.26375999           0.56545339 Cu 
atom_frac            0.07637998           0.23473998           0.44015999 S 
atom_frac            0.16526000           0.24163999           0.50682660 S 
atom_frac            0.15836002           0.32362000           0.57349340 S 
atom_frac            0.17510000           0.23221999           0.45932000 S 
atom_frac            0.16777999           0.34288001           0.52598660 S 
atom_frac            0.05712001           0.22490001           0.59265339 S 
atom_frac            0.19712001           0.28598002           0.41652000 S 
atom_frac            0.11401999           0.31114001           0.48318660 S 
atom_frac            0.08886000           0.20288001           0.54985339 S 
atom_frac            0.13602002           0.35542000           0.41632000 S 
atom_frac            0.04458000           0.38060000           0.48298660 S 
atom_frac            0.01939998           0.26398000           0.54965339 S 
atom_frac            0.18013999           0.33333338           0.65000000 Ba 
atom_frac            0.06666661           0.24680662           0.71666660 Ba 
atom_frac            0.15319341           0.21986000           0.78333340 Ba 
atom_frac            0.06666661           0.27525999           0.61654000 Sn 
atom_frac            0.12474001           0.39140660           0.68320659 Sn 
atom_frac            0.00859339           0.33333338           0.74987340 Sn 
atom_frac            0.05220001           0.24942000           0.66788000 Cu 
atom_frac            0.15058002           0.20278000           0.73454661 Cu 
atom_frac            0.19722001           0.34780002           0.60121340 Cu 
atom_frac            0.13624000           0.21718000           0.63212000 Cu 
atom_frac            0.18282001           0.31906001           0.69878660 Cu 
atom_frac            0.08093999           0.26375999           0.76545339 Cu 
atom_frac            0.07637998           0.23473998           0.64015999 S 
atom_frac            0.16526000           0.24163999           0.70682660 S 
atom_frac            0.15836002           0.32362000           0.77349340 S 
atom_frac            0.17510000           0.23221999           0.65932000 S 
atom_frac            0.16777999           0.34288001           0.72598660 S 
atom_frac            0.05712001           0.22490001           0.79265339 S 
atom_frac            0.19712001           0.28598002           0.61652000 S 
atom_frac            0.11401999           0.31114001           0.68318660 S 
atom_frac            0.08886000           0.20288001           0.74985339 S 
atom_frac            0.13602002           0.35542000           0.61632000 S 
atom_frac            0.04458000           0.38060000           0.68298660 S 
atom_frac            0.01939998           0.26398000           0.74965339 S 
atom_frac            0.18013999           0.33333338           0.85000000 Ba 
atom_frac            0.06666661           0.24680662           0.91666660 Ba 
atom_frac            0.15319341           0.21986000           0.98333340 Ba 
atom_frac            0.06666661           0.27525999           0.81654000 Sn 
atom_frac            0.12474001           0.39140660           0.88320659 Sn 
atom_frac            0.00859339           0.33333338           0.94987340 Sn 
atom_frac            0.05220001           0.24942000           0.86788000 Cu 
atom_frac            0.15058002           0.20278000           0.93454661 Cu 
atom_frac            0.19722001           0.34780002           0.80121340 Cu 
atom_frac            0.13624000           0.21718000           0.83212000 Cu 
atom_frac            0.18282001           0.31906001           0.89878660 Cu 
atom_frac            0.08093999           0.26375999           0.96545339 Cu 
atom_frac            0.07637998           0.23473998           0.84015999 S 
atom_frac            0.16526000           0.24163999           0.90682660 S 
atom_frac            0.15836002           0.32362000           0.97349340 S 
atom_frac            0.17510000           0.23221999           0.85932000 S 
atom_frac            0.16777999           0.34288001           0.92598660 S 
atom_frac            0.05712001           0.22490001           0.99265339 S 
atom_frac            0.19712001           0.28598002           0.81652000 S 
atom_frac            0.11401999           0.31114001           0.88318660 S 
atom_frac            0.08886000           0.20288001           0.94985339 S 
atom_frac            0.13602002           0.35542000           0.81632000 S 
atom_frac            0.04458000           0.38060000           0.88298660 S 
atom_frac            0.01939998           0.26398000           0.94965339 S 
atom_frac            0.18013999           0.53333338           0.05000000 Ba 
atom_frac            0.06666661           0.44680662           0.11666660 Ba 
atom_frac            0.15319341           0.41986000           0.18333340 Ba 
atom_frac            0.06666661           0.47525999           0.01654000 Sn 
atom_frac            0.12474001           0.59140660           0.08320659 Sn 
atom_frac            0.00859339           0.53333338           0.14987340 Sn 
atom_frac            0.05220001           0.44942000           0.06788000 Cu 
atom_frac            0.15058002           0.40278000           0.13454661 Cu 
atom_frac            0.19722001           0.54780002           0.00121340 Cu 
atom_frac            0.13624000           0.41718000           0.03212000 Cu 
atom_frac            0.18282001           0.51906001           0.09878660 Cu 
atom_frac            0.08093999           0.46375999           0.16545339 Cu 
atom_frac            0.07637998           0.43473998           0.04015999 S 
atom_frac            0.16526000           0.44163999           0.10682660 S 
atom_frac            0.15836002           0.52362000           0.17349340 S 
atom_frac            0.17510000           0.43221999           0.05932000 S 
atom_frac            0.16777999           0.54288001           0.12598660 S 
atom_frac            0.05712001           0.42490001           0.19265339 S 
atom_frac            0.19712001           0.48598002           0.01652000 S 
atom_frac            0.11401999           0.51114001           0.08318660 S 
atom_frac            0.08886000           0.40288001           0.14985339 S 
atom_frac            0.13602002           0.55542000           0.01632000 S 
atom_frac            0.04458000           0.58060000           0.08298660 S 
atom_frac            0.01939998           0.46398000           0.14965339 S 
atom_frac            0.18013999           0.53333338           0.25000000 Ba 
atom_frac            0.06666661           0.44680662           0.31666660 Ba 
atom_frac            0.15319341           0.41986000           0.38333340 Ba 
atom_frac            0.06666661           0.47525999           0.21654000 Sn 
atom_frac            0.12474001           0.59140660           0.28320659 Sn 
atom_frac            0.00859339           0.53333338           0.34987340 Sn 
atom_frac            0.05220001           0.44942000           0.26788000 Cu 
atom_frac            0.15058002           0.40278000           0.33454661 Cu 
atom_frac            0.19722001           0.54780002           0.20121340 Cu 
atom_frac            0.13624000           0.41718000           0.23212000 Cu 
atom_frac            0.18282001           0.51906001           0.29878660 Cu 
atom_frac            0.08093999           0.46375999           0.36545339 Cu 
atom_frac            0.07637998           0.43473998           0.24015999 S 
atom_frac            0.16526000           0.44163999           0.30682660 S 
atom_frac            0.15836002           0.52362000           0.37349340 S 
atom_frac            0.17510000           0.43221999           0.25932000 S 
atom_frac            0.16777999           0.54288001           0.32598660 S 
atom_frac            0.05712001           0.42490001           0.39265339 S 
atom_frac            0.19712001           0.48598002           0.21652000 S 
atom_frac            0.11401999           0.51114001           0.28318660 S 
atom_frac            0.08886000           0.40288001           0.34985339 S 
atom_frac            0.13602002           0.55542000           0.21632000 S 
atom_frac            0.04458000           0.58060000           0.28298660 S 
atom_frac            0.01939998           0.46398000           0.34965339 S 
atom_frac            0.18013999           0.53333338           0.45000000 Ba 
atom_frac            0.06666661           0.44680662           0.51666660 Ba 
atom_frac            0.15319341           0.41986000           0.58333340 Ba 
atom_frac            0.06666661           0.47525999           0.41654000 Sn 
atom_frac            0.12474001           0.59140660           0.48320659 Sn 
atom_frac            0.00859339           0.53333338           0.54987340 Sn 
atom_frac            0.05220001           0.44942000           0.46788000 Cu 
atom_frac            0.15058002           0.40278000           0.53454661 Cu 
atom_frac            0.19722001           0.54780002           0.40121340 Cu 
atom_frac            0.13624000           0.41718000           0.43212000 Cu 
atom_frac            0.18282001           0.51906001           0.49878660 Cu 
atom_frac            0.08093999           0.46375999           0.56545339 Cu 
atom_frac            0.07637998           0.43473998           0.44015999 S 
atom_frac            0.16526000           0.44163999           0.50682660 S 
atom_frac            0.15836002           0.52362000           0.57349340 S 
atom_frac            0.17510000           0.43221999           0.45932000 S 
atom_frac            0.16777999           0.54288001           0.52598660 S 
atom_frac            0.05712001           0.42490001           0.59265339 S 
atom_frac            0.19712001           0.48598002           0.41652000 S 
atom_frac            0.11401999           0.51114001           0.48318660 S 
atom_frac            0.08886000           0.40288001           0.54985339 S 
atom_frac            0.13602002           0.55542000           0.41632000 S 
atom_frac            0.04458000           0.58060000           0.48298660 S 
atom_frac            0.01939998           0.46398000           0.54965339 S 
atom_frac            0.18013999           0.53333338           0.65000000 Ba 
atom_frac            0.06666661           0.44680662           0.71666660 Ba 
atom_frac            0.15319341           0.41986000           0.78333340 Ba 
atom_frac            0.06666661           0.47525999           0.61654000 Sn 
atom_frac            0.12474001           0.59140660           0.68320659 Sn 
atom_frac            0.00859339           0.53333338           0.74987340 Sn 
atom_frac            0.05220001           0.44942000           0.66788000 Cu 
atom_frac            0.15058002           0.40278000           0.73454661 Cu 
atom_frac            0.19722001           0.54780002           0.60121340 Cu 
atom_frac            0.13624000           0.41718000           0.63212000 Cu 
atom_frac            0.18282001           0.51906001           0.69878660 Cu 
atom_frac            0.08093999           0.46375999           0.76545339 Cu 
atom_frac            0.07637998           0.43473998           0.64015999 S 
atom_frac            0.16526000           0.44163999           0.70682660 S 
atom_frac            0.15836002           0.52362000           0.77349340 S 
atom_frac            0.17510000           0.43221999           0.65932000 S 
atom_frac            0.16777999           0.54288001           0.72598660 S 
atom_frac            0.05712001           0.42490001           0.79265339 S 
atom_frac            0.19712001           0.48598002           0.61652000 S 
atom_frac            0.11401999           0.51114001           0.68318660 S 
atom_frac            0.08886000           0.40288001           0.74985339 S 
atom_frac            0.13602002           0.55542000           0.61632000 S 
atom_frac            0.04458000           0.58060000           0.68298660 S 
atom_frac            0.01939998           0.46398000           0.74965339 S 
atom_frac            0.18013999           0.53333338           0.85000000 Ba 
atom_frac            0.06666661           0.44680662           0.91666660 Ba 
atom_frac            0.15319341           0.41986000           0.98333340 Ba 
atom_frac            0.06666661           0.47525999           0.81654000 Sn 
atom_frac            0.12474001           0.59140660           0.88320659 Sn 
atom_frac            0.00859339           0.53333338           0.94987340 Sn 
atom_frac            0.05220001           0.44942000           0.86788000 Cu 
atom_frac            0.15058002           0.40278000           0.93454661 Cu 
atom_frac            0.19722001           0.54780002           0.80121340 Cu 
atom_frac            0.13624000           0.41718000           0.83212000 Cu 
atom_frac            0.18282001           0.51906001           0.89878660 Cu 
atom_frac            0.08093999           0.46375999           0.96545339 Cu 
atom_frac            0.07637998           0.43473998           0.84015999 S 
atom_frac            0.16526000           0.44163999           0.90682660 S 
atom_frac            0.15836002           0.52362000           0.97349340 S 
atom_frac            0.17510000           0.43221999           0.85932000 S 
atom_frac            0.16777999           0.54288001           0.92598660 S 
atom_frac            0.05712001           0.42490001           0.99265339 S 
atom_frac            0.19712001           0.48598002           0.81652000 S 
atom_frac            0.11401999           0.51114001           0.88318660 S 
atom_frac            0.08886000           0.40288001           0.94985339 S 
atom_frac            0.13602002           0.55542000           0.81632000 S 
atom_frac            0.04458000           0.58060000           0.88298660 S 
atom_frac            0.01939998           0.46398000           0.94965339 S 
atom_frac            0.18013999           0.73333338           0.05000000 Ba 
atom_frac            0.06666661           0.64680662           0.11666660 Ba 
atom_frac            0.15319341           0.61986000           0.18333340 Ba 
atom_frac            0.06666661           0.67525999           0.01654000 Sn 
atom_frac            0.12474001           0.79140660           0.08320659 Sn 
atom_frac            0.00859339           0.73333338           0.14987340 Sn 
atom_frac            0.05220001           0.64942000           0.06788000 Cu 
atom_frac            0.15058002           0.60278000           0.13454661 Cu 
atom_frac            0.19722001           0.74780002           0.00121340 Cu 
atom_frac            0.13624000           0.61718000           0.03212000 Cu 
atom_frac            0.18282001           0.71906001           0.09878660 Cu 
atom_frac            0.08093999           0.66375999           0.16545339 Cu 
atom_frac            0.07637998           0.63473998           0.04015999 S 
atom_frac            0.16526000           0.64163999           0.10682660 S 
atom_frac            0.15836002           0.72362000           0.17349340 S 
atom_frac            0.17510000           0.63221999           0.05932000 S 
atom_frac            0.16777999           0.74288001           0.12598660 S 
atom_frac            0.05712001           0.62490001           0.19265339 S 
atom_frac            0.19712001           0.68598002           0.01652000 S 
atom_frac            0.11401999           0.71114001           0.08318660 S 
atom_frac            0.08886000           0.60288001           0.14985339 S 
atom_frac            0.13602002           0.75542000           0.01632000 S 
atom_frac            0.04458000           0.78060000           0.08298660 S 
atom_frac            0.01939998           0.66398000           0.14965339 S 