lattice_vector           33.08390400         -19.10100000           0.00000000
lattice_vector            0.00000000          38.20200000           0.00000000
lattice_vector            0.00000000           0.00000000          94.99800000

atom_frac            0.15011666           0.11111115           0.04166667 Ba 
atom_frac            0.05555550           0.03900551           0.09722216 Ba 
atom_frac            0.12766117           0.01655000           0.15277784 Ba 
atom_frac            0.05555550           0.06271666           0.01378333 Sn 
atom_frac            0.10395000           0.15950550           0.06933883 Sn 
atom_frac            0.00716116           0.11111115           0.12489450 Sn 
atom_frac            0.04350001           0.04118333           0.05656666 Cu 
atom_frac            0.12548335           0.00231667           0.11212217 Cu 
atom_frac            0.16435001           0.12316668           0.00101117 Cu 
atom_frac            0.11353334           0.01431666           0.02676667 Cu 
atom_frac            0.15235001           0.09921668           0.08232217 Cu 
atom_frac            0.06744999           0.05313333           0.13787783 Cu 
atom_frac            0.06364999           0.02894999           0.03346666 S 
atom_frac            0.13771667           0.03469999           0.08902217 S 
atom_frac            0.13196668           0.10301666           0.14457783 S 
atom_frac            0.14591667           0.02684999           0.04943334 S 
atom_frac            0.13981666           0.11906667           0.10498883 S 
atom_frac            0.04760001           0.02075000           0.16054449 S 
atom_frac            0.16426668           0.07165001           0.01376667 S 
atom_frac            0.09501666           0.09261667           0.06932217 S 
atom_frac            0.07405000           0.00240000           0.12487783 S 
atom_frac            0.11335002           0.12951667           0.01360000 S 
atom_frac            0.03715000           0.15050000           0.06915550 S 
atom_frac            0.01616665           0.05331667           0.12471116 S 
atom_frac            0.15011666           0.11111115           0.20833333 Ba 
atom_frac            0.05555550           0.03900551           0.26388883 Ba 
atom_frac            0.12766117           0.01655000           0.31944450 Ba 
atom_frac            0.05555550           0.06271666           0.18045000 Sn 
atom_frac            0.10395000           0.15950550           0.23600550 Sn 
atom_frac            0.00716116           0.11111115           0.29156117 Sn 
atom_frac            0.04350001           0.04118333           0.22323333 Cu 
atom_frac            0.12548335           0.00231667           0.27878884 Cu 
atom_frac            0.16435001           0.12316668           0.16767783 Cu 
atom_frac            0.11353334           0.01431666           0.19343333 Cu 
atom_frac            0.15235001           0.09921668           0.24898883 Cu 
atom_frac            0.06744999           0.05313333           0.30454450 Cu 
atom_frac            0.06364999           0.02894999           0.20013333 S 
atom_frac            0.13771667           0.03469999           0.25568884 S 
atom_frac            0.13196668           0.10301666           0.31124450 S 
atom_frac            0.14591667           0.02684999           0.21610000 S 
atom_frac            0.13981666           0.11906667           0.27165550 S 
atom_frac            0.04760001           0.02075000           0.32721116 S 
atom_frac            0.16426668           0.07165001           0.18043334 S 
atom_frac            0.09501666           0.09261667           0.23598883 S 
atom_frac            0.07405000           0.00240000           0.29154450 S 
atom_frac            0.11335002           0.12951667           0.18026667 S 
atom_frac            0.03715000           0.15050000           0.23582216 S 
atom_frac            0.01616665           0.05331667           0.29137783 S 
atom_frac            0.15011666           0.11111115           0.37500000 Ba 
atom_frac            0.05555550           0.03900551           0.43055550 Ba 
atom_frac            0.12766117           0.01655000           0.48611117 Ba 
atom_frac            0.05555550           0.06271666           0.34711666 Sn 
atom_frac            0.10395000           0.15950550           0.40267216 Sn 
atom_frac            0.00716116           0.11111115           0.45822784 Sn 
atom_frac            0.04350001           0.04118333           0.38990000 Cu 
atom_frac            0.12548335           0.00231667           0.44545550 Cu 
atom_frac            0.16435001           0.12316668           0.33434450 Cu 
atom_frac            0.11353334           0.01431666           0.36010000 Cu 
atom_frac            0.15235001           0.09921668           0.41565550 Cu 
atom_frac            0.06744999           0.05313333           0.47121116 Cu 
atom_frac            0.06364999           0.02894999           0.36679999 S 
atom_frac            0.13771667           0.03469999           0.42235550 S 
atom_frac            0.13196668           0.10301666           0.47791117 S 
atom_frac            0.14591667           0.02684999           0.38276667 S 
atom_frac            0.13981666           0.11906667           0.43832216 S 
atom_frac            0.04760001           0.02075000           0.49387783 S 
atom_frac            0.16426668           0.07165001           0.34710000 S 
atom_frac            0.09501666           0.09261667           0.40265550 S 
atom_frac            0.07405000           0.00240000           0.45821116 S 
atom_frac            0.11335002           0.12951667           0.34693334 S 
atom_frac            0.03715000           0.15050000           0.40248883 S 
atom_frac            0.01616665           0.05331667           0.45804449 S 
atom_frac            0.15011666           0.11111115           0.54166667 Ba 
atom_frac            0.05555550           0.03900551           0.59722216 Ba 
atom_frac            0.12766117           0.01655000           0.65277784 Ba 
atom_frac            0.05555550           0.06271666           0.51378333 Sn 
atom_frac            0.10395000           0.15950550           0.56933883 Sn 
atom_frac            0.00716116           0.11111115           0.62489450 Sn 
atom_frac            0.04350001           0.04118333           0.55656666 Cu 
atom_frac            0.12548335           0.00231667           0.61212217 Cu 
atom_frac            0.16435001           0.12316668           0.50101117 Cu 
atom_frac            0.11353334           0.01431666           0.52676667 Cu 
atom_frac            0.15235001           0.09921668           0.58232217 Cu 
atom_frac            0.06744999           0.05313333           0.63787783 Cu 
atom_frac            0.06364999           0.02894999           0.53346666 S 
atom_frac            0.13771667           0.03469999           0.58902217 S 
atom_frac            0.13196668           0.10301666           0.64457783 S 
atom_frac            0.14591667           0.02684999           0.54943334 S 
atom_frac            0.13981666           0.11906667           0.60498883 S 
atom_frac            0.04760001           0.02075000           0.66054450 S 
atom_frac            0.16426668           0.07165001           0.51376667 S 
atom_frac            0.09501666           0.09261667           0.56932216 S 
atom_frac            0.07405000           0.00240000           0.62487783 S 
atom_frac            0.11335002           0.12951667           0.51360000 S 
atom_frac            0.03715000           0.15050000           0.56915550 S 
atom_frac            0.01616665           0.05331667           0.62471116 S 
atom_frac            0.15011666           0.11111115           0.70833333 Ba 
atom_frac            0.05555550           0.03900551           0.76388883 Ba 
atom_frac            0.12766117           0.01655000           0.81944450 Ba 
atom_frac            0.05555550           0.06271666           0.68045000 Sn 
atom_frac            0.10395000           0.15950550           0.73600550 Sn 
atom_frac            0.00716116           0.11111115           0.79156117 Sn 
atom_frac            0.04350001           0.04118333           0.72323333 Cu 
atom_frac            0.12548335           0.00231667           0.77878884 Cu 
atom_frac            0.16435001           0.12316668           0.66767783 Cu 
atom_frac            0.11353334           0.01431666           0.69343333 Cu 
atom_frac            0.15235001           0.09921668           0.74898883 Cu 
atom_frac            0.06744999           0.05313333           0.80454450 Cu 
atom_frac            0.06364999           0.02894999           0.70013333 S 
atom_frac            0.13771667           0.03469999           0.75568883 S 
atom_frac            0.13196668           0.10301666           0.81124450 S 
atom_frac            0.14591667           0.02684999           0.71610000 S 
atom_frac            0.13981666           0.11906667           0.77165550 S 
atom_frac            0.04760001           0.02075000           0.82721116 S 
atom_frac            0.16426668           0.07165001           0.68043333 S 
atom_frac            0.09501666           0.09261667           0.73598883 S 
atom_frac            0.07405000           0.00240000           0.79154449 S 
atom_frac            0.11335002           0.12951667           0.68026667 S 
atom_frac            0.03715000           0.15050000           0.73582216 S 
atom_frac            0.01616665           0.05331667           0.79137783 S 
atom_frac            0.15011666           0.11111115           0.87500000 Ba 
atom_frac            0.05555550           0.03900551           0.93055550 Ba 
atom_frac            0.12766117           0.01655000           0.98611117 Ba 
atom_frac            0.05555550           0.06271666           0.84711667 Sn 
atom_frac            0.10395000           0.15950550           0.90267216 Sn 
atom_frac            0.00716116           0.11111115           0.95822784 Sn 
atom_frac            0.04350001           0.04118333           0.88990000 Cu 
atom_frac            0.12548335           0.00231667           0.94545550 Cu 
atom_frac            0.16435001           0.12316668           0.83434450 Cu 
atom_frac            0.11353334           0.01431666           0.86010000 Cu 
atom_frac            0.15235001           0.09921668           0.91565550 Cu 
atom_frac            0.06744999           0.05313333           0.97121116 Cu 
atom_frac            0.06364999           0.02894999           0.86680000 S 
atom_frac            0.13771667           0.03469999           0.92235550 S 
atom_frac            0.13196668           0.10301666           0.97791117 S 
atom_frac            0.14591667           0.02684999           0.88276667 S 
atom_frac            0.13981666           0.11906667           0.93832216 S 
atom_frac            0.04760001           0.02075000           0.99387783 S 
atom_frac            0.16426668           0.07165001           0.84710000 S 
atom_frac            0.09501666           0.09261667           0.90265550 S 
atom_frac            0.07405000           0.00240000           0.95821116 S 
atom_frac            0.11335002           0.12951667           0.84693334 S 
atom_frac            0.03715000           0.15050000           0.90248883 S 
atom_frac            0.01616665           0.05331667           0.95804449 S 
atom_frac            0.15011666           0.27777782           0.04166667 Ba 
atom_frac            0.05555550           0.20567218           0.09722216 Ba 
atom_frac            0.12766117           0.18321667           0.15277784 Ba 
atom_frac            0.05555550           0.22938332           0.01378333 Sn 
atom_frac            0.10395000           0.32617217           0.06933883 Sn 
atom_frac            0.00716116           0.27777782           0.12489450 Sn 
atom_frac            0.04350001           0.20785000           0.05656666 Cu 
atom_frac            0.12548335           0.16898334           0.11212217 Cu 
atom_frac            0.16435001           0.28983335           0.00101117 Cu 
atom_frac            0.11353334           0.18098333           0.02676667 Cu 
atom_frac            0.15235001           0.26588334           0.08232217 Cu 
atom_frac            0.06744999           0.21979999           0.13787783 Cu 
atom_frac            0.06364999           0.19561665           0.03346666 S 
atom_frac            0.13771667           0.20136666           0.08902217 S 
atom_frac            0.13196668           0.26968333           0.14457783 S 
atom_frac            0.14591667           0.19351665           0.04943334 S 
atom_frac            0.13981666           0.28573334           0.10498883 S 
atom_frac            0.04760001           0.18741667           0.16054449 S 
atom_frac            0.16426668           0.23831668           0.01376667 S 
atom_frac            0.09501666           0.25928334           0.06932217 S 
atom_frac            0.07405000           0.16906667           0.12487783 S 
atom_frac            0.11335002           0.29618333           0.01360000 S 
atom_frac            0.03715000           0.31716667           0.06915550 S 
atom_frac            0.01616665           0.21998333           0.12471116 S 
atom_frac            0.15011666           0.27777782           0.20833333 Ba 
atom_frac            0.05555550           0.20567218           0.26388883 Ba 
atom_frac            0.12766117           0.18321667           0.31944450 Ba 
atom_frac            0.05555550           0.22938332           0.18045000 Sn 
atom_frac            0.10395000           0.32617217           0.23600550 Sn 
atom_frac            0.00716116           0.27777782           0.29156117 Sn 
atom_frac            0.04350001           0.20785000           0.22323333 Cu 
atom_frac            0.12548335           0.16898334           0.27878884 Cu 
atom_frac            0.16435001           0.28983335           0.16767783 Cu 
atom_frac            0.11353334           0.18098333           0.19343333 Cu 
atom_frac            0.15235001           0.26588334           0.24898883 Cu 
atom_frac            0.06744999           0.21979999           0.30454450 Cu 
atom_frac            0.06364999           0.19561665           0.20013333 S 
atom_frac            0.13771667           0.20136666           0.25568884 S 
atom_frac            0.13196668           0.26968333           0.31124450 S 
atom_frac            0.14591667           0.19351665           0.21610000 S 
atom_frac            0.13981666           0.28573334           0.27165550 S 
atom_frac            0.04760001           0.18741667           0.32721116 S 
atom_frac            0.16426668           0.23831668           0.18043334 S 
atom_frac            0.09501666           0.25928334           0.23598883 S 
atom_frac            0.07405000           0.16906667           0.29154450 S 
atom_frac            0.11335002           0.29618333           0.18026667 S 
atom_frac            0.03715000           0.31716667           0.23582216 S 
atom_frac            0.01616665           0.21998333           0.29137783 S 
atom_frac            0.15011666           0.27777782           0.37500000 Ba 
atom_frac            0.05555550           0.20567218           0.43055550 Ba 
atom_frac            0.12766117           0.18321667           0.48611117 Ba 
atom_frac            0.05555550           0.22938332           0.34711666 Sn 
atom_frac            0.10395000           0.32617217           0.40267216 Sn 
atom_frac            0.00716116           0.27777782           0.45822784 Sn 
atom_frac            0.04350001           0.20785000           0.38990000 Cu 
atom_frac            0.12548335           0.16898334           0.44545550 Cu 
atom_frac            0.16435001           0.28983335           0.33434450 Cu 
atom_frac            0.11353334           0.18098333           0.36010000 Cu 
atom_frac            0.15235001           0.26588334           0.41565550 Cu 
atom_frac            0.06744999           0.21979999           0.47121116 Cu 
atom_frac            0.06364999           0.19561665           0.36679999 S 
atom_frac            0.13771667           0.20136666           0.42235550 S 
atom_frac            0.13196668           0.26968333           0.47791117 S 
atom_frac            0.14591667           0.19351665           0.38276667 S 
atom_frac            0.13981666           0.28573334           0.43832216 S 
atom_frac            0.04760001           0.18741667           0.49387783 S 
atom_frac            0.16426668           0.23831668           0.34710000 S 
atom_frac            0.09501666           0.25928334           0.40265550 S 
atom_frac            0.07405000           0.16906667           0.45821116 S 
atom_frac            0.11335002           0.29618333           0.34693334 S 
atom_frac            0.03715000           0.31716667           0.40248883 S 
atom_frac            0.01616665           0.21998333           0.45804449 S 
atom_frac            0.15011666           0.27777782           0.54166667 Ba 
atom_frac            0.05555550           0.20567218           0.59722216 Ba 
atom_frac            0.12766117           0.18321667           0.65277784 Ba 
atom_frac            0.05555550           0.22938332           0.51378333 Sn 
atom_frac            0.10395000           0.32617217           0.56933883 Sn 
atom_frac            0.00716116           0.27777782           0.62489450 Sn 
atom_frac            0.04350001           0.20785000           0.55656666 Cu 
atom_frac            0.12548335           0.16898334           0.61212217 Cu 
atom_frac            0.16435001           0.28983335           0.50101117 Cu 
atom_frac            0.11353334           0.18098333           0.52676667 Cu 
atom_frac            0.15235001           0.26588334           0.58232217 Cu 
atom_frac            0.06744999           0.21979999           0.63787783 Cu 
atom_frac            0.06364999           0.19561665           0.53346666 S 
atom_frac            0.13771667           0.20136666           0.58902217 S 
atom_frac            0.13196668           0.26968333           0.64457783 S 
atom_frac            0.14591667           0.19351665           0.54943334 S 
atom_frac            0.13981666           0.28573334           0.60498883 S 
atom_frac            0.04760001           0.18741667           0.66054450 S 
atom_frac            0.16426668           0.23831668           0.51376667 S 
atom_frac            0.09501666           0.25928334           0.56932216 S 
atom_frac            0.07405000           0.16906667           0.62487783 S 
atom_frac            0.11335002           0.29618333           0.51360000 S 
atom_frac            0.03715000           0.31716667           0.56915550 S 
atom_frac            0.01616665           0.21998333           0.62471116 S 
atom_frac            0.15011666           0.27777782           0.70833333 Ba 
atom_frac            0.05555550           0.20567218           0.76388883 Ba 
atom_frac            0.12766117           0.18321667           0.81944450 Ba 
atom_frac            0.05555550           0.22938332           0.68045000 Sn 
atom_frac            0.10395000           0.32617217           0.73600550 Sn 
atom_frac            0.00716116           0.27777782           0.79156117 Sn 
atom_frac            0.04350001           0.20785000           0.72323333 Cu 
atom_frac            0.12548335           0.16898334           0.77878884 Cu 
atom_frac            0.16435001           0.28983335           0.66767783 Cu 
atom_frac            0.11353334           0.18098333           0.69343333 Cu 
atom_frac            0.15235001           0.26588334           0.74898883 Cu 
atom_frac            0.06744999           0.21979999           0.80454450 Cu 
atom_frac            0.06364999           0.19561665           0.70013333 S 
atom_frac            0.13771667           0.20136666           0.75568883 S 
atom_frac            0.13196668           0.26968333           0.81124450 S 
atom_frac            0.14591667           0.19351665           0.71610000 S 
atom_frac            0.13981666           0.28573334           0.77165550 S 
atom_frac            0.04760001           0.18741667           0.82721116 S 
atom_frac            0.16426668           0.23831668           0.68043333 S 
atom_frac            0.09501666           0.25928334           0.73598883 S 
atom_frac            0.07405000           0.16906667           0.79154449 S 
atom_frac            0.11335002           0.29618333           0.68026667 S 
atom_frac            0.03715000           0.31716667           0.73582216 S 
atom_frac            0.01616665           0.21998333           0.79137783 S 
atom_frac            0.15011666           0.27777782           0.87500000 Ba 
atom_frac            0.05555550           0.20567218           0.93055550 Ba 
atom_frac            0.12766117           0.18321667           0.98611117 Ba 
atom_frac            0.05555550           0.22938332           0.84711667 Sn 
atom_frac            0.10395000           0.32617217           0.90267216 Sn 
atom_frac            0.00716116           0.27777782           0.95822784 Sn 
atom_frac            0.04350001           0.20785000           0.88990000 Cu 
atom_frac            0.12548335           0.16898334           0.94545550 Cu 
atom_frac            0.16435001           0.28983335           0.83434450 Cu 
atom_frac            0.11353334           0.18098333           0.86010000 Cu 
atom_frac            0.15235001           0.26588334           0.91565550 Cu 
atom_frac            0.06744999           0.21979999           0.97121116 Cu 
atom_frac            0.06364999           0.19561665           0.86680000 S 
atom_frac            0.13771667           0.20136666           0.92235550 S 
atom_frac            0.13196668           0.26968333           0.97791117 S 
atom_frac            0.14591667           0.19351665           0.88276667 S 
atom_frac            0.13981666           0.28573334           0.93832216 S 
atom_frac            0.04760001           0.18741667           0.99387783 S 
atom_frac            0.16426668           0.23831668           0.84710000 S 
atom_frac            0.09501666           0.25928334           0.90265550 S 
atom_frac            0.07405000           0.16906667           0.95821116 S 
atom_frac            0.11335002           0.29618333           0.84693334 S 
atom_frac            0.03715000           0.31716667           0.90248883 S 
atom_frac            0.01616665           0.21998333           0.95804449 S 
atom_frac            0.15011666           0.44444449           0.04166667 Ba 
atom_frac            0.05555550           0.37233885           0.09722216 Ba 
atom_frac            0.12766117           0.34988333           0.15277784 Ba 
atom_frac            0.05555550           0.39604999           0.01378333 Sn 
atom_frac            0.10395000           0.49283883           0.06933883 Sn 
atom_frac            0.00716116           0.44444449           0.12489450 Sn 
atom_frac            0.04350001           0.37451666           0.05656666 Cu 
atom_frac            0.12548335           0.33565000           0.11212217 Cu 
atom_frac            0.16435001           0.45650001           0.00101117 Cu 
atom_frac            0.11353334           0.34765000           0.02676667 Cu 
atom_frac            0.15235001           0.43255001           0.08232217 Cu 
atom_frac            0.06744999           0.38646666           0.13787783 Cu 
atom_frac            0.06364999           0.36228332           0.03346666 S 
atom_frac            0.13771667           0.36803332           0.08902217 S 
atom_frac            0.13196668           0.43635000           0.14457783 S 
atom_frac            0.14591667           0.36018332           0.04943334 S 
atom_frac            0.13981666           0.45240001           0.10498883 S 
atom_frac            0.04760001           0.35408334           0.16054449 S 
atom_frac            0.16426668           0.40498335           0.01376667 S 
atom_frac            0.09501666           0.42595001           0.06932217 S 
atom_frac            0.07405000           0.33573334           0.12487783 S 
atom_frac            0.11335002           0.46285000           0.01360000 S 
atom_frac            0.03715000           0.48383334           0.06915550 S 
atom_frac            0.01616665           0.38665000           0.12471116 S 
atom_frac            0.15011666           0.44444449           0.20833333 Ba 
atom_frac            0.05555550           0.37233885           0.26388883 Ba 
atom_frac            0.12766117           0.34988333           0.31944450 Ba 
atom_frac            0.05555550           0.39604999           0.18045000 Sn 
atom_frac            0.10395000           0.49283883           0.23600550 Sn 
atom_frac            0.00716116           0.44444449           0.29156117 Sn 
atom_frac            0.04350001           0.37451666           0.22323333 Cu 
atom_frac            0.12548335           0.33565000           0.27878884 Cu 
atom_frac            0.16435001           0.45650001           0.16767783 Cu 
atom_frac            0.11353334           0.34765000           0.19343333 Cu 
atom_frac            0.15235001           0.43255001           0.24898883 Cu 
atom_frac            0.06744999           0.38646666           0.30454450 Cu 
atom_frac            0.06364999           0.36228332           0.20013333 S 
atom_frac            0.13771667           0.36803332           0.25568884 S 
atom_frac            0.13196668           0.43635000           0.31124450 S 
atom_frac            0.14591667           0.36018332           0.21610000 S 
atom_frac            0.13981666           0.45240001           0.27165550 S 
atom_frac            0.04760001           0.35408334           0.32721116 S 
atom_frac            0.16426668           0.40498335           0.18043334 S 
atom_frac            0.09501666           0.42595001           0.23598883 S 
atom_frac            0.07405000           0.33573334           0.29154450 S 
atom_frac            0.11335002           0.46285000           0.18026667 S 
atom_frac            0.03715000           0.48383334           0.23582216 S 
atom_frac            0.01616665           0.38665000           0.29137783 S 
atom_frac            0.15011666           0.44444449           0.37500000 Ba 
atom_frac            0.05555550           0.37233885           0.43055550 Ba 
atom_frac            0.12766117           0.34988333           0.48611117 Ba 
atom_frac            0.05555550           0.39604999           0.34711666 Sn 
atom_frac            0.10395000           0.49283883           0.40267216 Sn 
atom_frac            0.00716116           0.44444449           0.45822784 Sn 
atom_frac            0.04350001           0.37451666           0.38990000 Cu 
atom_frac            0.12548335           0.33565000           0.44545550 Cu 
atom_frac            0.16435001           0.45650001           0.33434450 Cu 
atom_frac            0.11353334           0.34765000           0.36010000 Cu 
atom_frac            0.15235001           0.43255001           0.41565550 Cu 
atom_frac            0.06744999           0.38646666           0.47121116 Cu 
atom_frac            0.06364999           0.36228332           0.36679999 S 
atom_frac            0.13771667           0.36803332           0.42235550 S 
atom_frac            0.13196668           0.43635000           0.47791117 S 
atom_frac            0.14591667           0.36018332           0.38276667 S 
atom_frac            0.13981666           0.45240001           0.43832216 S 
atom_frac            0.04760001           0.35408334           0.49387783 S 
atom_frac            0.16426668           0.40498335           0.34710000 S 
atom_frac            0.09501666           0.42595001           0.40265550 S 
atom_frac            0.07405000           0.33573334           0.45821116 S 
atom_frac            0.11335002           0.46285000           0.34693334 S 
atom_frac            0.03715000           0.48383334           0.40248883 S 
atom_frac            0.01616665           0.38665000           0.45804449 S 
atom_frac            0.15011666           0.44444449           0.54166667 Ba 
atom_frac            0.05555550           0.37233885           0.59722216 Ba 
atom_frac            0.12766117           0.34988333           0.65277784 Ba 
atom_frac            0.05555550           0.39604999           0.51378333 Sn 
atom_frac            0.10395000           0.49283883           0.56933883 Sn 
atom_frac            0.00716116           0.44444449           0.62489450 Sn 
atom_frac            0.04350001           0.37451666           0.55656666 Cu 
atom_frac            0.12548335           0.33565000           0.61212217 Cu 
atom_frac            0.16435001           0.45650001           0.50101117 Cu 
atom_frac            0.11353334           0.34765000           0.52676667 Cu 
atom_frac            0.15235001           0.43255001           0.58232217 Cu 
atom_frac            0.06744999           0.38646666           0.63787783 Cu 
atom_frac            0.06364999           0.36228332           0.53346666 S 
atom_frac            0.13771667           0.36803332           0.58902217 S 
atom_frac            0.13196668           0.43635000           0.64457783 S 
atom_frac            0.14591667           0.36018332           0.54943334 S 
atom_frac            0.13981666           0.45240001           0.60498883 S 
atom_frac            0.04760001           0.35408334           0.66054450 S 
atom_frac            0.16426668           0.40498335           0.51376667 S 
atom_frac            0.09501666           0.42595001           0.56932216 S 
atom_frac            0.07405000           0.33573334           0.62487783 S 
atom_frac            0.11335002           0.46285000           0.51360000 S 
atom_frac            0.03715000           0.48383334           0.56915550 S 
atom_frac            0.01616665           0.38665000           0.62471116 S 