lattice_vector           16.54195200          -9.55050000           0.00000000
lattice_vector            0.00000000          19.10100000           0.00000000
lattice_vector            0.00000000           0.00000000          47.49900000

atom_frac            0.30023331           0.22222230           0.08333333 Ba 
atom_frac            0.11111101           0.07801103           0.19444433 Ba 
atom_frac            0.25532235           0.03310000           0.30555567 Ba 
atom_frac            0.11111101           0.12543331           0.02756666 Sn 
atom_frac            0.20790001           0.31901100           0.13867766 Sn 
atom_frac            0.01432231           0.22222230           0.24978901 Sn 
atom_frac            0.08700001           0.08236666           0.11313333 Cu 
atom_frac            0.25096669           0.00463334           0.22424434 Cu 
atom_frac            0.32870002           0.24633336           0.00202234 Cu 
atom_frac            0.22706667           0.02863333           0.05353334 Cu 
atom_frac            0.30470001           0.19843335           0.16464433 Cu 
atom_frac            0.13489998           0.10626665           0.27575566 Cu 
atom_frac            0.12729997           0.05789997           0.06693332 S 
atom_frac            0.27543333           0.06939998           0.17804434 S 
atom_frac            0.26393336           0.20603333           0.28915567 S 
atom_frac            0.29183333           0.05369998           0.09886667 S 
atom_frac            0.27963332           0.23813335           0.20997766 S 
atom_frac            0.09520001           0.04150001           0.32108899 S 
atom_frac            0.32853336           0.14330003           0.02753334 S 
atom_frac            0.19003332           0.18523335           0.13864433 S 
atom_frac            0.14809999           0.00480001           0.24975566 S 
atom_frac            0.22670003           0.25903333           0.02720000 S 
atom_frac            0.07430000           0.30100001           0.13831100 S 
atom_frac            0.03233331           0.10663333           0.24942232 S 
atom_frac            0.30023331           0.22222230           0.41666667 Ba 
atom_frac            0.11111101           0.07801103           0.52777766 Ba 
atom_frac            0.25532235           0.03310000           0.63888901 Ba 
atom_frac            0.11111101           0.12543331           0.36090000 Sn 
atom_frac            0.20790001           0.31901100           0.47201099 Sn 
atom_frac            0.01432231           0.22222230           0.58312234 Sn 
atom_frac            0.08700001           0.08236666           0.44646666 Cu 
atom_frac            0.25096669           0.00463334           0.55757768 Cu 
atom_frac            0.32870002           0.24633336           0.33535567 Cu 
atom_frac            0.22706667           0.02863333           0.38686667 Cu 
atom_frac            0.30470001           0.19843335           0.49797766 Cu 
atom_frac            0.13489998           0.10626665           0.60908899 Cu 
atom_frac            0.12729997           0.05789997           0.40026666 S 
atom_frac            0.27543333           0.06939998           0.51137767 S 
atom_frac            0.26393336           0.20603333           0.62248900 S 
atom_frac            0.29183333           0.05369998           0.43220000 S 
atom_frac            0.27963332           0.23813335           0.54331100 S 
atom_frac            0.09520001           0.04150001           0.65442232 S 
atom_frac            0.32853336           0.14330003           0.36086667 S 
atom_frac            0.19003332           0.18523335           0.47197766 S 
atom_frac            0.14809999           0.00480001           0.58308899 S 
atom_frac            0.22670003           0.25903333           0.36053334 S 
atom_frac            0.07430000           0.30100001           0.47164433 S 
atom_frac            0.03233331           0.10663333           0.58275566 S 
atom_frac            0.30023331           0.22222230           0.75000000 Ba 
atom_frac            0.11111101           0.07801103           0.86111099 Ba 
atom_frac            0.25532235           0.03310000           0.97222234 Ba 
atom_frac            0.11111101           0.12543331           0.69423333 Sn 
atom_frac            0.20790001           0.31901100           0.80534432 Sn 
atom_frac            0.01432231           0.22222230           0.91645567 Sn 
atom_frac            0.08700001           0.08236666           0.77980000 Cu 
atom_frac            0.25096669           0.00463334           0.89091101 Cu 
atom_frac            0.32870002           0.24633336           0.66868900 Cu 
atom_frac            0.22706667           0.02863333           0.72020000 Cu 
atom_frac            0.30470001           0.19843335           0.83131100 Cu 
atom_frac            0.13489998           0.10626665           0.94242232 Cu 
atom_frac            0.12729997           0.05789997           0.73359999 S 
atom_frac            0.27543333           0.06939998           0.84471100 S 
atom_frac            0.26393336           0.20603333           0.95582233 S 
atom_frac            0.29183333           0.05369998           0.76553334 S 
atom_frac            0.27963332           0.23813335           0.87664433 S 
atom_frac            0.09520001           0.04150001           0.98775566 S 
atom_frac            0.32853336           0.14330003           0.69420000 S 
atom_frac            0.19003332           0.18523335           0.80531100 S 
atom_frac            0.14809999           0.00480001           0.91642232 S 
atom_frac            0.22670003           0.25903333           0.69386667 S 
atom_frac            0.07430000           0.30100001           0.80497766 S 
atom_frac            0.03233331           0.10663333           0.91608899 S 
atom_frac            0.30023331           0.55555564           0.08333333 Ba 
atom_frac            0.11111101           0.41134436           0.19444433 Ba 
atom_frac            0.25532235           0.36643333           0.30555567 Ba 
atom_frac            0.11111101           0.45876665           0.02756666 Sn 
atom_frac            0.20790001           0.65234433           0.13867766 Sn 
atom_frac            0.01432231           0.55555564           0.24978901 Sn 
atom_frac            0.08700001           0.41569999           0.11313333 Cu 
atom_frac            0.25096669           0.33796667           0.22424434 Cu 
atom_frac            0.32870002           0.57966670           0.00202234 Cu 
atom_frac            0.22706667           0.36196666           0.05353334 Cu 
atom_frac            0.30470001           0.53176669           0.16464433 Cu 
atom_frac            0.13489998           0.43959998           0.27575566 Cu 
atom_frac            0.12729997           0.39123331           0.06693332 S 
atom_frac            0.27543333           0.40273332           0.17804434 S 
atom_frac            0.26393336           0.53936666           0.28915567 S 
atom_frac            0.29183333           0.38703331           0.09886667 S 
atom_frac            0.27963332           0.57146668           0.20997766 S 
atom_frac            0.09520001           0.37483334           0.32108899 S 
atom_frac            0.32853336           0.47663336           0.02753334 S 
atom_frac            0.19003332           0.51856668           0.13864433 S 
atom_frac            0.14809999           0.33813334           0.24975566 S 
atom_frac            0.22670003           0.59236666           0.02720000 S 
atom_frac            0.07430000           0.63433334           0.13831100 S 
atom_frac            0.03233331           0.43996666           0.24942232 S 
atom_frac            0.30023331           0.55555564           0.41666667 Ba 
atom_frac            0.11111101           0.41134436           0.52777766 Ba 
atom_frac            0.25532235           0.36643333           0.63888901 Ba 
atom_frac            0.11111101           0.45876665           0.36090000 Sn 
atom_frac            0.20790001           0.65234433           0.47201099 Sn 
atom_frac            0.01432231           0.55555564           0.58312234 Sn 
atom_frac            0.08700001           0.41569999           0.44646666 Cu 
atom_frac            0.25096669           0.33796667           0.55757768 Cu 
atom_frac            0.32870002           0.57966670           0.33535567 Cu 
atom_frac            0.22706667           0.36196666           0.38686667 Cu 
atom_frac            0.30470001           0.53176669           0.49797766 Cu 
atom_frac            0.13489998           0.43959998           0.60908899 Cu 
atom_frac            0.12729997           0.39123331           0.40026666 S 
atom_frac            0.27543333           0.40273332           0.51137767 S 
atom_frac            0.26393336           0.53936666           0.62248900 S 
atom_frac            0.29183333           0.38703331           0.43220000 S 
atom_frac            0.27963332           0.57146668           0.54331100 S 
atom_frac            0.09520001           0.37483334           0.65442232 S 
atom_frac            0.32853336           0.47663336           0.36086667 S 
atom_frac            0.19003332           0.51856668           0.47197766 S 
atom_frac            0.14809999           0.33813334           0.58308899 S 
atom_frac            0.22670003           0.59236666           0.36053334 S 
atom_frac            0.07430000           0.63433334           0.47164433 S 
atom_frac            0.03233331           0.43996666           0.58275566 S 
atom_frac            0.30023331           0.55555564           0.75000000 Ba 
atom_frac            0.11111101           0.41134436           0.86111099 Ba 
atom_frac            0.25532235           0.36643333           0.97222234 Ba 
atom_frac            0.11111101           0.45876665           0.69423333 Sn 
atom_frac            0.20790001           0.65234433           0.80534432 Sn 
atom_frac            0.01432231           0.55555564           0.91645567 Sn 
atom_frac            0.08700001           0.41569999           0.77980000 Cu 
atom_frac            0.25096669           0.33796667           0.89091101 Cu 
atom_frac            0.32870002           0.57966670           0.66868900 Cu 
atom_frac            0.22706667           0.36196666           0.72020000 Cu 
atom_frac            0.30470001           0.53176669           0.83131100 Cu 
atom_frac            0.13489998           0.43959998           0.94242232 Cu 
atom_frac            0.12729997           0.39123331           0.73359999 S 
atom_frac            0.27543333           0.40273332           0.84471100 S 
atom_frac            0.26393336           0.53936666           0.95582233 S 
atom_frac            0.29183333           0.38703331           0.76553334 S 
atom_frac            0.27963332           0.57146668           0.87664433 S 
atom_frac            0.09520001           0.37483334           0.98775566 S 
atom_frac            0.32853336           0.47663336           0.69420000 S 
atom_frac            0.19003332           0.51856668           0.80531100 S 
atom_frac            0.14809999           0.33813334           0.91642232 S 
atom_frac            0.22670003           0.59236666           0.69386667 S 
atom_frac            0.07430000           0.63433334           0.80497766 S 
atom_frac            0.03233331           0.43996666           0.91608899 S 
atom_frac            0.30023331           0.88888897           0.08333333 Ba 
atom_frac            0.11111101           0.74467770           0.19444433 Ba 
atom_frac            0.25532235           0.69976667           0.30555567 Ba 
atom_frac            0.11111101           0.79209998           0.02756666 Sn 
atom_frac            0.20790001           0.98567766           0.13867766 Sn 
atom_frac            0.01432231           0.88888897           0.24978901 Sn 
atom_frac            0.08700001           0.74903333           0.11313333 Cu 
atom_frac            0.25096669           0.67130001           0.22424434 Cu 
atom_frac            0.32870002           0.91300003           0.00202234 Cu 
atom_frac            0.22706667           0.69530000           0.05353334 Cu 
atom_frac            0.30470001           0.86510002           0.16464433 Cu 
atom_frac            0.13489998           0.77293332           0.27575566 Cu 
atom_frac            0.12729997           0.72456664           0.06693332 S 
atom_frac            0.27543333           0.73606665           0.17804434 S 
atom_frac            0.26393336           0.87269999           0.28915567 S 
atom_frac            0.29183333           0.72036664           0.09886667 S 
atom_frac            0.27963332           0.90480001           0.20997766 S 
atom_frac            0.09520001           0.70816668           0.32108899 S 
atom_frac            0.32853336           0.80996669           0.02753334 S 
atom_frac            0.19003332           0.85190002           0.13864433 S 
atom_frac            0.14809999           0.67146668           0.24975566 S 
atom_frac            0.22670003           0.92570000           0.02720000 S 
atom_frac            0.07430000           0.96766667           0.13831100 S 
atom_frac            0.03233331           0.77330000           0.24942232 S 
atom_frac            0.30023331           0.88888897           0.41666667 Ba 
atom_frac            0.11111101           0.74467770           0.52777766 Ba 
atom_frac            0.25532235           0.69976667           0.63888901 Ba 
atom_frac            0.11111101           0.79209998           0.36090000 Sn 
atom_frac            0.20790001           0.98567766           0.47201099 Sn 
atom_frac            0.01432231           0.88888897           0.58312234 Sn 
atom_frac            0.08700001           0.74903333           0.44646666 Cu 
atom_frac            0.25096669           0.67130001           0.55757768 Cu 
atom_frac            0.32870002           0.91300003           0.33535567 Cu 
atom_frac            0.22706667           0.69530000           0.38686667 Cu 
atom_frac            0.30470001           0.86510002           0.49797766 Cu 
atom_frac            0.13489998           0.77293332           0.60908899 Cu 
atom_frac            0.12729997           0.72456664           0.40026666 S 
atom_frac            0.27543333           0.73606665           0.51137767 S 
atom_frac            0.26393336           0.87269999           0.62248900 S 
atom_frac            0.29183333           0.72036664           0.43220000 S 
atom_frac            0.27963332           0.90480001           0.54331100 S 
atom_frac            0.09520001           0.70816668           0.65442232 S 
atom_frac            0.32853336           0.80996669           0.36086667 S 
atom_frac            0.19003332           0.85190002           0.47197766 S 
atom_frac            0.14809999           0.67146668           0.58308899 S 
atom_frac            0.22670003           0.92570000           0.36053334 S 
atom_frac            0.07430000           0.96766667           0.47164433 S 
atom_frac            0.03233331           0.77330000           0.58275566 S 
atom_frac            0.30023331           0.88888897           0.75000000 Ba 
atom_frac            0.11111101           0.74467770           0.86111099 Ba 
atom_frac            0.25532235           0.69976667           0.97222234 Ba 
atom_frac            0.11111101           0.79209998           0.69423333 Sn 
atom_frac            0.20790001           0.98567766           0.80534432 Sn 
atom_frac            0.01432231           0.88888897           0.91645567 Sn 
atom_frac            0.08700001           0.74903333           0.77980000 Cu 
atom_frac            0.25096669           0.67130001           0.89091101 Cu 
atom_frac            0.32870002           0.91300003           0.66868900 Cu 
atom_frac            0.22706667           0.69530000           0.72020000 Cu 
atom_frac            0.30470001           0.86510002           0.83131100 Cu 
atom_frac            0.13489998           0.77293332           0.94242232 Cu 
atom_frac            0.12729997           0.72456664           0.73359999 S 
atom_frac            0.27543333           0.73606665           0.84471100 S 
atom_frac            0.26393336           0.87269999           0.95582233 S 
atom_frac            0.29183333           0.72036664           0.76553334 S 
atom_frac            0.27963332           0.90480001           0.87664433 S 
atom_frac            0.09520001           0.70816668           0.98775566 S 
atom_frac            0.32853336           0.80996669           0.69420000 S 
atom_frac            0.19003332           0.85190002           0.80531100 S 
atom_frac            0.14809999           0.67146668           0.91642232 S 
atom_frac            0.22670003           0.92570000           0.69386667 S 
atom_frac            0.07430000           0.96766667           0.80497766 S 
atom_frac            0.03233331           0.77330000           0.91608899 S 
atom_frac            0.63356664           0.22222230           0.08333333 Ba 
atom_frac            0.44444434           0.07801103           0.19444433 Ba 
atom_frac            0.58865568           0.03310000           0.30555567 Ba 
atom_frac            0.44444434           0.12543331           0.02756666 Sn 
atom_frac            0.54123334           0.31901100           0.13867766 Sn 
atom_frac            0.34765565           0.22222230           0.24978901 Sn 
atom_frac            0.42033334           0.08236666           0.11313333 Cu 
atom_frac            0.58430003           0.00463334           0.22424434 Cu 
atom_frac            0.66203336           0.24633336           0.00202234 Cu 
atom_frac            0.56040001           0.02863333           0.05353334 Cu 
atom_frac            0.63803335           0.19843335           0.16464433 Cu 
atom_frac            0.46823331           0.10626665           0.27575566 Cu 
atom_frac            0.46063330           0.05789997           0.06693332 S 
atom_frac            0.60876667           0.06939998           0.17804434 S 
atom_frac            0.59726670           0.20603333           0.28915567 S 
atom_frac            0.62516667           0.05369998           0.09886667 S 
atom_frac            0.61296666           0.23813335           0.20997766 S 
atom_frac            0.42853334           0.04150001           0.32108899 S 
atom_frac            0.66186669           0.14330003           0.02753334 S 
atom_frac            0.52336665           0.18523335           0.13864433 S 
atom_frac            0.48143333           0.00480001           0.24975566 S 
atom_frac            0.56003336           0.25903333           0.02720000 S 
atom_frac            0.40763333           0.30100001           0.13831100 S 
atom_frac            0.36566664           0.10663333           0.24942232 S 
atom_frac            0.63356664           0.22222230           0.41666667 Ba 
atom_frac            0.44444434           0.07801103           0.52777766 Ba 
atom_frac            0.58865568           0.03310000           0.63888901 Ba 
atom_frac            0.44444434           0.12543331           0.36090000 Sn 
atom_frac            0.54123334           0.31901100           0.47201099 Sn 
atom_frac            0.34765565           0.22222230           0.58312234 Sn 
atom_frac            0.42033334           0.08236666           0.44646666 Cu 
atom_frac            0.58430003           0.00463334           0.55757768 Cu 
atom_frac            0.66203336           0.24633336           0.33535567 Cu 
atom_frac            0.56040001           0.02863333           0.38686667 Cu 
atom_frac            0.63803335           0.19843335           0.49797766 Cu 
atom_frac            0.46823331           0.10626665           0.60908899 Cu 
atom_frac            0.46063330           0.05789997           0.40026666 S 
atom_frac            0.60876667           0.06939998           0.51137767 S 
atom_frac            0.59726670           0.20603333           0.62248900 S 
atom_frac            0.62516667           0.05369998           0.43220000 S 
atom_frac            0.61296666           0.23813335           0.54331100 S 
atom_frac            0.42853334           0.04150001           0.65442232 S 
atom_frac            0.66186669           0.14330003           0.36086667 S 
atom_frac            0.52336665           0.18523335           0.47197766 S 
atom_frac            0.48143333           0.00480001           0.58308899 S 
atom_frac            0.56003336           0.25903333           0.36053334 S 
atom_frac            0.40763333           0.30100001           0.47164433 S 
atom_frac            0.36566664           0.10663333           0.58275566 S 
atom_frac            0.63356664           0.22222230           0.75000000 Ba 
atom_frac            0.44444434           0.07801103           0.86111099 Ba 
atom_frac            0.58865568           0.03310000           0.97222234 Ba 
atom_frac            0.44444434           0.12543331           0.69423333 Sn 
atom_frac            0.54123334           0.31901100           0.80534432 Sn 
atom_frac            0.34765565           0.22222230           0.91645567 Sn 
atom_frac            0.42033334           0.08236666           0.77980000 Cu 
atom_frac            0.58430003           0.00463334           0.89091101 Cu 
atom_frac            0.66203336           0.24633336           0.66868900 Cu 
atom_frac            0.56040001           0.02863333           0.72020000 Cu 
atom_frac            0.63803335           0.19843335           0.83131100 Cu 
atom_frac            0.46823331           0.10626665           0.94242232 Cu 
atom_frac            0.46063330           0.05789997           0.73359999 S 
atom_frac            0.60876667           0.06939998           0.84471100 S 
atom_frac            0.59726670           0.20603333           0.95582233 S 
atom_frac            0.62516667           0.05369998           0.76553334 S 
atom_frac            0.61296666           0.23813335           0.87664433 S 
atom_frac            0.42853334           0.04150001           0.98775566 S 
atom_frac            0.66186669           0.14330003           0.69420000 S 
atom_frac            0.52336665           0.18523335           0.80531100 S 
atom_frac            0.48143333           0.00480001           0.91642232 S 
atom_frac            0.56003336           0.25903333           0.69386667 S 
atom_frac            0.40763333           0.30100001           0.80497766 S 
atom_frac            0.36566664           0.10663333           0.91608899 S 
atom_frac            0.63356664           0.55555564           0.08333333 Ba 
atom_frac            0.44444434           0.41134436           0.19444433 Ba 
atom_frac            0.58865568           0.36643333           0.30555567 Ba 
atom_frac            0.44444434           0.45876665           0.02756666 Sn 
atom_frac            0.54123334           0.65234433           0.13867766 Sn 
atom_frac            0.34765565           0.55555564           0.24978901 Sn 
atom_frac            0.42033334           0.41569999           0.11313333 Cu 
atom_frac            0.58430003           0.33796667           0.22424434 Cu 
atom_frac            0.66203336           0.57966670           0.00202234 Cu 
atom_frac            0.56040001           0.36196666           0.05353334 Cu 
atom_frac            0.63803335           0.53176669           0.16464433 Cu 
atom_frac            0.46823331           0.43959998           0.27575566 Cu 
atom_frac            0.46063330           0.39123331           0.06693332 S 
atom_frac            0.60876667           0.40273332           0.17804434 S 
atom_frac            0.59726670           0.53936666           0.28915567 S 
atom_frac            0.62516667           0.38703331           0.09886667 S 
atom_frac            0.61296666           0.57146668           0.20997766 S 
atom_frac            0.42853334           0.37483334           0.32108899 S 
atom_frac            0.66186669           0.47663336           0.02753334 S 
atom_frac            0.52336665           0.51856668           0.13864433 S 
atom_frac            0.48143333           0.33813334           0.24975566 S 
atom_frac            0.56003336           0.59236666           0.02720000 S 
atom_frac            0.40763333           0.63433334           0.13831100 S 
atom_frac            0.36566664           0.43996666           0.24942232 S 
atom_frac            0.63356664           0.55555564           0.41666667 Ba 
atom_frac            0.44444434           0.41134436           0.52777766 Ba 
atom_frac            0.58865568           0.36643333           0.63888901 Ba 
atom_frac            0.44444434           0.45876665           0.36090000 Sn 
atom_frac            0.54123334           0.65234433           0.47201099 Sn 
atom_frac            0.34765565           0.55555564           0.58312234 Sn 
atom_frac            0.42033334           0.41569999           0.44646666 Cu 
atom_frac            0.58430003           0.33796667           0.55757768 Cu 
atom_frac            0.66203336           0.57966670           0.33535567 Cu 
atom_frac            0.56040001           0.36196666           0.38686667 Cu 
atom_frac            0.63803335           0.53176669           0.49797766 Cu 
atom_frac            0.46823331           0.43959998           0.60908899 Cu 
atom_frac            0.46063330           0.39123331           0.40026666 S 
atom_frac            0.60876667           0.40273332           0.51137767 S 
atom_frac            0.59726670           0.53936666           0.62248900 S 
atom_frac            0.62516667           0.38703331           0.43220000 S 
atom_frac            0.61296666           0.57146668           0.54331100 S 
atom_frac            0.42853334           0.37483334           0.65442232 S 
atom_frac            0.66186669           0.47663336           0.36086667 S 
atom_frac            0.52336665           0.51856668           0.47197766 S 
atom_frac            0.48143333           0.33813334           0.58308899 S 
atom_frac            0.56003336           0.59236666           0.36053334 S 
atom_frac            0.40763333           0.63433334           0.47164433 S 
atom_frac            0.36566664           0.43996666           0.58275566 S 
atom_frac            0.63356664           0.55555564           0.75000000 Ba 
atom_frac            0.44444434           0.41134436           0.86111099 Ba 
atom_frac            0.58865568           0.36643333           0.97222234 Ba 
atom_frac            0.44444434           0.45876665           0.69423333 Sn 
atom_frac            0.54123334           0.65234433           0.80534432 Sn 
atom_frac            0.34765565           0.55555564           0.91645567 Sn 
atom_frac            0.42033334           0.41569999           0.77980000 Cu 
atom_frac            0.58430003           0.33796667           0.89091101 Cu 
atom_frac            0.66203336           0.57966670           0.66868900 Cu 
atom_frac            0.56040001           0.36196666           0.72020000 Cu 
atom_frac            0.63803335           0.53176669           0.83131100 Cu 
atom_frac            0.46823331           0.43959998           0.94242232 Cu 
atom_frac            0.46063330           0.39123331           0.73359999 S 
atom_frac            0.60876667           0.40273332           0.84471100 S 
atom_frac            0.59726670           0.53936666           0.95582233 S 
atom_frac            0.62516667           0.38703331           0.76553334 S 
atom_frac            0.61296666           0.57146668           0.87664433 S 
atom_frac            0.42853334           0.37483334           0.98775566 S 
atom_frac            0.66186669           0.47663336           0.69420000 S 
atom_frac            0.52336665           0.51856668           0.80531100 S 
atom_frac            0.48143333           0.33813334           0.91642232 S 
atom_frac            0.56003336           0.59236666           0.69386667 S 
atom_frac            0.40763333           0.63433334           0.80497766 S 
atom_frac            0.36566664           0.43996666           0.91608899 S 
atom_frac            0.63356664           0.88888897           0.08333333 Ba 
atom_frac            0.44444434           0.74467770           0.19444433 Ba 
atom_frac            0.58865568           0.69976667           0.30555567 Ba 
atom_frac            0.44444434           0.79209998           0.02756666 Sn 
atom_frac            0.54123334           0.98567766           0.13867766 Sn 
atom_frac            0.34765565           0.88888897           0.24978901 Sn 
atom_frac            0.42033334           0.74903333           0.11313333 Cu 
atom_frac            0.58430003           0.67130001           0.22424434 Cu 
atom_frac            0.66203336           0.91300003           0.00202234 Cu 
atom_frac            0.56040001           0.69530000           0.05353334 Cu 
atom_frac            0.63803335           0.86510002           0.16464433 Cu 
atom_frac            0.46823331           0.77293332           0.27575566 Cu 
atom_frac            0.46063330           0.72456664           0.06693332 S 
atom_frac            0.60876667           0.73606665           0.17804434 S 
atom_frac            0.59726670           0.87269999           0.28915567 S 
atom_frac            0.62516667           0.72036664           0.09886667 S 
atom_frac            0.61296666           0.90480001           0.20997766 S 
atom_frac            0.42853334           0.70816668           0.32108899 S 
atom_frac            0.66186669           0.80996669           0.02753334 S 
atom_frac            0.52336665           0.85190002           0.13864433 S 
atom_frac            0.48143333           0.67146668           0.24975566 S 
atom_frac            0.56003336           0.92570000           0.02720000 S 
atom_frac            0.40763333           0.96766667           0.13831100 S 
atom_frac            0.36566664           0.77330000           0.24942232 S 