
# ---------------------------------------------------------------------------
# Name and Label
# ---------------------------------------------------------------------------

SystemName          VNL-Export
SystemLabel         VNL-Export

# ---------------------------------------------------------------------------
# Lattice
# ---------------------------------------------------------------------------

LatticeConstant             1.00 Ang

%block LatticeVectors
     4.922400     -8.525840      0.000000
     4.922400      8.525840      0.000000
     0.000000      0.000000     26.836000
%endblock LatticeVectors

# ---------------------------------------------------------------------------
# Species and Atoms
# ---------------------------------------------------------------------------

NumberOfSpecies        1
NumberOfAtoms        256

%block ChemicalSpeciesLabel
  1   6  C
%endblock ChemicalSpeciesLabel

# ---------------------------------------------------------------------------
# Atomic Coordinates
# ---------------------------------------------------------------------------

AtomicCoordinatesFormat Ang

%block AtomicCoordinatesAndAtomicSpecies
      3.6918000      6.3943800      1.6772500     1
      3.6918000      6.3943800      5.0317500     1
      4.9224000      7.1048681      1.6772500     1
      4.9224000      5.6838919      5.0317500     1
      3.6918000      6.3943800      8.3862500     1
      3.6918000      6.3943800     11.7407500     1
      4.9224000      7.1048681      8.3862500     1
      4.9224000      5.6838919     11.7407500     1
      3.6918000      6.3943800     15.0952500     1
      3.6918000      6.3943800     18.4497500     1
      4.9224000      7.1048681     15.0952500     1
      4.9224000      5.6838919     18.4497500     1
      3.6918000      6.3943800     21.8042500     1
      3.6918000      6.3943800     25.1587500     1
      4.9224000      7.1048681     21.8042500     1
      4.9224000      5.6838919     25.1587500     1
      0.0000000      0.0000000      1.6772500     1
      0.0000000      0.0000000      5.0317500     1
      1.2306000      0.7104881      1.6772500     1
      1.2306000     -0.7104881      5.0317500     1
      0.0000000      0.0000000      8.3862500     1
      0.0000000      0.0000000     11.7407500     1
      1.2306000      0.7104881      8.3862500     1
      1.2306000     -0.7104881     11.7407500     1
      0.0000000      0.0000000     15.0952500     1
      0.0000000      0.0000000     18.4497500     1
      1.2306000      0.7104881     15.0952500     1
      1.2306000     -0.7104881     18.4497500     1
      0.0000000      0.0000000     21.8042500     1
      0.0000000      0.0000000     25.1587500     1
      1.2306000      0.7104881     21.8042500     1
      1.2306000     -0.7104881     25.1587500     1
      1.2306000      2.1314600      1.6772500     1
      1.2306000      2.1314600      5.0317500     1
      2.4612000      2.8419481      1.6772500     1
      2.4612000      1.4209719      5.0317500     1
      1.2306000      2.1314600      8.3862500     1
      1.2306000      2.1314600     11.7407500     1
      2.4612000      2.8419481      8.3862500     1
      2.4612000      1.4209719     11.7407500     1
      1.2306000      2.1314600     15.0952500     1
      1.2306000      2.1314600     18.4497500     1
      2.4612000      2.8419481     15.0952500     1
      2.4612000      1.4209719     18.4497500     1
      1.2306000      2.1314600     21.8042500     1
      1.2306000      2.1314600     25.1587500     1
      2.4612000      2.8419481     21.8042500     1
      2.4612000      1.4209719     25.1587500     1
      2.4612000      4.2629200      1.6772500     1
      2.4612000      4.2629200      5.0317500     1
      3.6918000      4.9734081      1.6772500     1
      3.6918000      3.5524319      5.0317500     1
      2.4612000      4.2629200      8.3862500     1
      2.4612000      4.2629200     11.7407500     1
      3.6918000      4.9734081      8.3862500     1
      3.6918000      3.5524319     11.7407500     1
      2.4612000      4.2629200     15.0952500     1
      2.4612000      4.2629200     18.4497500     1
      3.6918000      4.9734081     15.0952500     1
      3.6918000      3.5524319     18.4497500     1
      2.4612000      4.2629200     21.8042500     1
      2.4612000      4.2629200     25.1587500     1
      3.6918000      4.9734081     21.8042500     1
      3.6918000      3.5524319     25.1587500     1
      4.9224000      4.2629200      1.6772500     1
      4.9224000      4.2629200      5.0317500     1
      6.1530000      4.9734081      1.6772500     1
      6.1530000      3.5524319      5.0317500     1
      4.9224000      4.2629200      8.3862500     1
      4.9224000      4.2629200     11.7407500     1
      6.1530000      4.9734081      8.3862500     1
      6.1530000      3.5524319     11.7407500     1
      4.9224000      4.2629200     15.0952500     1
      4.9224000      4.2629200     18.4497500     1
      6.1530000      4.9734081     15.0952500     1
      6.1530000      3.5524319     18.4497500     1
      4.9224000      4.2629200     21.8042500     1
      4.9224000      4.2629200     25.1587500     1
      6.1530000      4.9734081     21.8042500     1
      6.1530000      3.5524319     25.1587500     1
      1.2306000     -2.1314600      1.6772500     1
      1.2306000     -2.1314600      5.0317500     1
      2.4612000     -1.4209719      1.6772500     1
      2.4612000     -2.8419481      5.0317500     1
      1.2306000     -2.1314600      8.3862500     1
      1.2306000     -2.1314600     11.7407500     1
      2.4612000     -1.4209719      8.3862500     1
      2.4612000     -2.8419481     11.7407500     1
      1.2306000     -2.1314600     15.0952500     1
      1.2306000     -2.1314600     18.4497500     1
      2.4612000     -1.4209719     15.0952500     1
      2.4612000     -2.8419481     18.4497500     1
      1.2306000     -2.1314600     21.8042500     1
      1.2306000     -2.1314600     25.1587500     1
      2.4612000     -1.4209719     21.8042500     1
      2.4612000     -2.8419481     25.1587500     1
      2.4612000      0.0000000      1.6772500     1
      2.4612000      0.0000000      5.0317500     1
      3.6918000      0.7104881      1.6772500     1
      3.6918000     -0.7104881      5.0317500     1
      2.4612000      0.0000000      8.3862500     1
      2.4612000      0.0000000     11.7407500     1
      3.6918000      0.7104881      8.3862500     1
      3.6918000     -0.7104881     11.7407500     1
      2.4612000      0.0000000     15.0952500     1
      2.4612000      0.0000000     18.4497500     1
      3.6918000      0.7104881     15.0952500     1
      3.6918000     -0.7104881     18.4497500     1
      2.4612000      0.0000000     21.8042500     1
      2.4612000      0.0000000     25.1587500     1
      3.6918000      0.7104881     21.8042500     1
      3.6918000     -0.7104881     25.1587500     1
      3.6918000      2.1314600      1.6772500     1
      3.6918000      2.1314600      5.0317500     1
      4.9224000      2.8419481      1.6772500     1
      4.9224000      1.4209719      5.0317500     1
      3.6918000      2.1314600      8.3862500     1
      3.6918000      2.1314600     11.7407500     1
      4.9224000      2.8419481      8.3862500     1
      4.9224000      1.4209719     11.7407500     1
      3.6918000      2.1314600     15.0952500     1
      3.6918000      2.1314600     18.4497500     1
      4.9224000      2.8419481     15.0952500     1
      4.9224000      1.4209719     18.4497500     1
      3.6918000      2.1314600     21.8042500     1
      3.6918000      2.1314600     25.1587500     1
      4.9224000      2.8419481     21.8042500     1
      4.9224000      1.4209719     25.1587500     1
      6.1530000      2.1314600      1.6772500     1
      6.1530000      2.1314600      5.0317500     1
      7.3836000      2.8419481      1.6772500     1
      7.3836000      1.4209719      5.0317500     1
      6.1530000      2.1314600      8.3862500     1
      6.1530000      2.1314600     11.7407500     1
      7.3836000      2.8419481      8.3862500     1
      7.3836000      1.4209719     11.7407500     1
      6.1530000      2.1314600     15.0952500     1
      6.1530000      2.1314600     18.4497500     1
      7.3836000      2.8419481     15.0952500     1
      7.3836000      1.4209719     18.4497500     1
      6.1530000      2.1314600     21.8042500     1
      6.1530000      2.1314600     25.1587500     1
      7.3836000      2.8419481     21.8042500     1
      7.3836000      1.4209719     25.1587500     1
      2.4612000     -4.2629200      1.6772500     1
      2.4612000     -4.2629200      5.0317500     1
      3.6918000     -3.5524319      1.6772500     1
      3.6918000     -4.9734081      5.0317500     1
      2.4612000     -4.2629200      8.3862500     1
      2.4612000     -4.2629200     11.7407500     1
      3.6918000     -3.5524319      8.3862500     1
      3.6918000     -4.9734081     11.7407500     1
      2.4612000     -4.2629200     15.0952500     1
      2.4612000     -4.2629200     18.4497500     1
      3.6918000     -3.5524319     15.0952500     1
      3.6918000     -4.9734081     18.4497500     1
      2.4612000     -4.2629200     21.8042500     1
      2.4612000     -4.2629200     25.1587500     1
      3.6918000     -3.5524319     21.8042500     1
      3.6918000     -4.9734081     25.1587500     1
      3.6918000     -2.1314600      1.6772500     1
      3.6918000     -2.1314600      5.0317500     1
      4.9224000     -1.4209719      1.6772500     1
      4.9224000     -2.8419481      5.0317500     1
      3.6918000     -2.1314600      8.3862500     1
      3.6918000     -2.1314600     11.7407500     1
      4.9224000     -1.4209719      8.3862500     1
      4.9224000     -2.8419481     11.7407500     1
      3.6918000     -2.1314600     15.0952500     1
      3.6918000     -2.1314600     18.4497500     1
      4.9224000     -1.4209719     15.0952500     1
      4.9224000     -2.8419481     18.4497500     1
      3.6918000     -2.1314600     21.8042500     1
      3.6918000     -2.1314600     25.1587500     1
      4.9224000     -1.4209719     21.8042500     1
      4.9224000     -2.8419481     25.1587500     1
      4.9224000      0.0000000      1.6772500     1
      4.9224000      0.0000000      5.0317500     1
      6.1530000      0.7104881      1.6772500     1
      6.1530000     -0.7104881      5.0317500     1
      4.9224000      0.0000000      8.3862500     1
      4.9224000      0.0000000     11.7407500     1
      6.1530000      0.7104881      8.3862500     1
      6.1530000     -0.7104881     11.7407500     1
      4.9224000      0.0000000     15.0952500     1
      4.9224000      0.0000000     18.4497500     1
      6.1530000      0.7104881     15.0952500     1
      6.1530000     -0.7104881     18.4497500     1
      4.9224000      0.0000000     21.8042500     1
      4.9224000      0.0000000     25.1587500     1
      6.1530000      0.7104881     21.8042500     1
      6.1530000     -0.7104881     25.1587500     1
      7.3836000      0.0000000      1.6772500     1
      7.3836000      0.0000000      5.0317500     1
      8.6142000      0.7104881      1.6772500     1
      8.6142000     -0.7104881      5.0317500     1
      7.3836000      0.0000000      8.3862500     1
      7.3836000      0.0000000     11.7407500     1
      8.6142000      0.7104881      8.3862500     1
      8.6142000     -0.7104881     11.7407500     1
      7.3836000      0.0000000     15.0952500     1
      7.3836000      0.0000000     18.4497500     1
      8.6142000      0.7104881     15.0952500     1
      8.6142000     -0.7104881     18.4497500     1
      7.3836000      0.0000000     21.8042500     1
      7.3836000      0.0000000     25.1587500     1
      8.6142000      0.7104881     21.8042500     1
      8.6142000     -0.7104881     25.1587500     1
      3.6918000     -6.3943800      1.6772500     1
      3.6918000     -6.3943800      5.0317500     1
      4.9224000     -5.6838919      1.6772500     1
      4.9224000     -7.1048681      5.0317500     1
      3.6918000     -6.3943800      8.3862500     1
      3.6918000     -6.3943800     11.7407500     1
      4.9224000     -5.6838919      8.3862500     1
      4.9224000     -7.1048681     11.7407500     1
      3.6918000     -6.3943800     15.0952500     1
      3.6918000     -6.3943800     18.4497500     1
      4.9224000     -5.6838919     15.0952500     1
      4.9224000     -7.1048681     18.4497500     1
      3.6918000     -6.3943800     21.8042500     1
      3.6918000     -6.3943800     25.1587500     1
      4.9224000     -5.6838919     21.8042500     1
      4.9224000     -7.1048681     25.1587500     1
      4.9224000     -4.2629200      1.6772500     1
      4.9224000     -4.2629200      5.0317500     1
      6.1530000     -3.5524319      1.6772500     1
      6.1530000     -4.9734081      5.0317500     1
      4.9224000     -4.2629200      8.3862500     1
      4.9224000     -4.2629200     11.7407500     1
      6.1530000     -3.5524319      8.3862500     1
      6.1530000     -4.9734081     11.7407500     1
      4.9224000     -4.2629200     15.0952500     1
      4.9224000     -4.2629200     18.4497500     1
      6.1530000     -3.5524319     15.0952500     1
      6.1530000     -4.9734081     18.4497500     1
      4.9224000     -4.2629200     21.8042500     1
      4.9224000     -4.2629200     25.1587500     1
      6.1530000     -3.5524319     21.8042500     1
      6.1530000     -4.9734081     25.1587500     1
      6.1530000     -2.1314600      1.6772500     1
      6.1530000     -2.1314600      5.0317500     1
      7.3836000     -1.4209719      1.6772500     1
      7.3836000     -2.8419481      5.0317500     1
      6.1530000     -2.1314600      8.3862500     1
      6.1530000     -2.1314600     11.7407500     1
      7.3836000     -1.4209719      8.3862500     1
      7.3836000     -2.8419481     11.7407500     1
      6.1530000     -2.1314600     15.0952500     1
      6.1530000     -2.1314600     18.4497500     1
      7.3836000     -1.4209719     15.0952500     1
      7.3836000     -2.8419481     18.4497500     1
      6.1530000     -2.1314600     21.8042500     1
      6.1530000     -2.1314600     25.1587500     1
      7.3836000     -1.4209719     21.8042500     1
      7.3836000     -2.8419481     25.1587500     1
%endblock AtomicCoordinatesAndAtomicSpecies

# END OF VNL EXPORT
# ---------------------------------------------------------------------------
# ---------------------------------------------------------------------------
