
# ---------------------------------------------------------------------------
# Name and Label
# ---------------------------------------------------------------------------

SystemName          VNL-Export
SystemLabel         VNL-Export

# ---------------------------------------------------------------------------
# Lattice
# ---------------------------------------------------------------------------

LatticeConstant             1.00 Ang

%block LatticeVectors
     7.383600    -12.788760      0.000000
     7.383600     12.788760      0.000000
     0.000000      0.000000     40.254000
%endblock LatticeVectors

# ---------------------------------------------------------------------------
# Species and Atoms
# ---------------------------------------------------------------------------

NumberOfSpecies        1
NumberOfAtoms        864

%block ChemicalSpeciesLabel
  1   6  C
%endblock ChemicalSpeciesLabel

# ---------------------------------------------------------------------------
# Atomic Coordinates
# ---------------------------------------------------------------------------

AtomicCoordinatesFormat Ang

%block AtomicCoordinatesAndAtomicSpecies
      0.0000000      0.0000000      1.6772500     1
      0.0000000      0.0000000      5.0317500     1
      1.2306000      0.7104881      1.6772500     1
      1.2306000     -0.7104881      5.0317500     1
      0.0000000      0.0000000      8.3862500     1
      0.0000000      0.0000000     11.7407500     1
      1.2306000      0.7104881      8.3862500     1
      1.2306000     -0.7104881     11.7407500     1
      0.0000000      0.0000000     15.0952500     1
      0.0000000      0.0000000     18.4497500     1
      1.2306000      0.7104881     15.0952500     1
      1.2306000     -0.7104881     18.4497500     1
      0.0000000      0.0000000     21.8042500     1
      0.0000000      0.0000000     25.1587500     1
      1.2306000      0.7104881     21.8042500     1
      1.2306000     -0.7104881     25.1587500     1
      0.0000000      0.0000000     28.5132500     1
      0.0000000      0.0000000     31.8677500     1
      1.2306000      0.7104881     28.5132500     1
      1.2306000     -0.7104881     31.8677500     1
      0.0000000      0.0000000     35.2222500     1
      0.0000000      0.0000000     38.5767500     1
      1.2306000      0.7104881     35.2222500     1
      1.2306000     -0.7104881     38.5767500     1
      1.2306000      2.1314600      1.6772500     1
      1.2306000      2.1314600      5.0317500     1
      2.4612000      2.8419481      1.6772500     1
      2.4612000      1.4209719      5.0317500     1
      1.2306000      2.1314600      8.3862500     1
      1.2306000      2.1314600     11.7407500     1
      2.4612000      2.8419481      8.3862500     1
      2.4612000      1.4209719     11.7407500     1
      1.2306000      2.1314600     15.0952500     1
      1.2306000      2.1314600     18.4497500     1
      2.4612000      2.8419481     15.0952500     1
      2.4612000      1.4209719     18.4497500     1
      1.2306000      2.1314600     21.8042500     1
      1.2306000      2.1314600     25.1587500     1
      2.4612000      2.8419481     21.8042500     1
      2.4612000      1.4209719     25.1587500     1
      1.2306000      2.1314600     28.5132500     1
      1.2306000      2.1314600     31.8677500     1
      2.4612000      2.8419481     28.5132500     1
      2.4612000      1.4209719     31.8677500     1
      1.2306000      2.1314600     35.2222500     1
      1.2306000      2.1314600     38.5767500     1
      2.4612000      2.8419481     35.2222500     1
      2.4612000      1.4209719     38.5767500     1
      2.4612000      4.2629200      1.6772500     1
      2.4612000      4.2629200      5.0317500     1
      3.6918000      4.9734081      1.6772500     1
      3.6918000      3.5524319      5.0317500     1
      2.4612000      4.2629200      8.3862500     1
      2.4612000      4.2629200     11.7407500     1
      3.6918000      4.9734081      8.3862500     1
      3.6918000      3.5524319     11.7407500     1
      2.4612000      4.2629200     15.0952500     1
      2.4612000      4.2629200     18.4497500     1
      3.6918000      4.9734081     15.0952500     1
      3.6918000      3.5524319     18.4497500     1
      2.4612000      4.2629200     21.8042500     1
      2.4612000      4.2629200     25.1587500     1
      3.6918000      4.9734081     21.8042500     1
      3.6918000      3.5524319     25.1587500     1
      2.4612000      4.2629200     28.5132500     1
      2.4612000      4.2629200     31.8677500     1
      3.6918000      4.9734081     28.5132500     1
      3.6918000      3.5524319     31.8677500     1
      2.4612000      4.2629200     35.2222500     1
      2.4612000      4.2629200     38.5767500     1
      3.6918000      4.9734081     35.2222500     1
      3.6918000      3.5524319     38.5767500     1
      3.6918000      6.3943800      1.6772500     1
      3.6918000      6.3943800      5.0317500     1
      4.9224000      7.1048681      1.6772500     1
      4.9224000      5.6838919      5.0317500     1
      3.6918000      6.3943800      8.3862500     1
      3.6918000      6.3943800     11.7407500     1
      4.9224000      7.1048681      8.3862500     1
      4.9224000      5.6838919     11.7407500     1
      3.6918000      6.3943800     15.0952500     1
      3.6918000      6.3943800     18.4497500     1
      4.9224000      7.1048681     15.0952500     1
      4.9224000      5.6838919     18.4497500     1
      3.6918000      6.3943800     21.8042500     1
      3.6918000      6.3943800     25.1587500     1
      4.9224000      7.1048681     21.8042500     1
      4.9224000      5.6838919     25.1587500     1
      3.6918000      6.3943800     28.5132500     1
      3.6918000      6.3943800     31.8677500     1
      4.9224000      7.1048681     28.5132500     1
      4.9224000      5.6838919     31.8677500     1
      3.6918000      6.3943800     35.2222500     1
      3.6918000      6.3943800     38.5767500     1
      4.9224000      7.1048681     35.2222500     1
      4.9224000      5.6838919     38.5767500     1
      4.9224000      8.5258400      1.6772500     1
      4.9224000      8.5258400      5.0317500     1
      6.1530000      9.2363281      1.6772500     1
      6.1530000      7.8153519      5.0317500     1
      4.9224000      8.5258400      8.3862500     1
      4.9224000      8.5258400     11.7407500     1
      6.1530000      9.2363281      8.3862500     1
      6.1530000      7.8153519     11.7407500     1
      4.9224000      8.5258400     15.0952500     1
      4.9224000      8.5258400     18.4497500     1
      6.1530000      9.2363281     15.0952500     1
      6.1530000      7.8153519     18.4497500     1
      4.9224000      8.5258400     21.8042500     1
      4.9224000      8.5258400     25.1587500     1
      6.1530000      9.2363281     21.8042500     1
      6.1530000      7.8153519     25.1587500     1
      4.9224000      8.5258400     28.5132500     1
      4.9224000      8.5258400     31.8677500     1
      6.1530000      9.2363281     28.5132500     1
      6.1530000      7.8153519     31.8677500     1
      4.9224000      8.5258400     35.2222500     1
      4.9224000      8.5258400     38.5767500     1
      6.1530000      9.2363281     35.2222500     1
      6.1530000      7.8153519     38.5767500     1
      6.1530000     10.6573000      1.6772500     1
      6.1530000     10.6573000      5.0317500     1
      7.3836000     11.3677881      1.6772500     1
      7.3836000      9.9468119      5.0317500     1
      6.1530000     10.6573000      8.3862500     1
      6.1530000     10.6573000     11.7407500     1
      7.3836000     11.3677881      8.3862500     1
      7.3836000      9.9468119     11.7407500     1
      6.1530000     10.6573000     15.0952500     1
      6.1530000     10.6573000     18.4497500     1
      7.3836000     11.3677881     15.0952500     1
      7.3836000      9.9468119     18.4497500     1
      6.1530000     10.6573000     21.8042500     1
      6.1530000     10.6573000     25.1587500     1
      7.3836000     11.3677881     21.8042500     1
      7.3836000      9.9468119     25.1587500     1
      6.1530000     10.6573000     28.5132500     1
      6.1530000     10.6573000     31.8677500     1
      7.3836000     11.3677881     28.5132500     1
      7.3836000      9.9468119     31.8677500     1
      6.1530000     10.6573000     35.2222500     1
      6.1530000     10.6573000     38.5767500     1
      7.3836000     11.3677881     35.2222500     1
      7.3836000      9.9468119     38.5767500     1
      1.2306000     -2.1314600      1.6772500     1
      1.2306000     -2.1314600      5.0317500     1
      2.4612000     -1.4209719      1.6772500     1
      2.4612000     -2.8419481      5.0317500     1
      1.2306000     -2.1314600      8.3862500     1
      1.2306000     -2.1314600     11.7407500     1
      2.4612000     -1.4209719      8.3862500     1
      2.4612000     -2.8419481     11.7407500     1
      1.2306000     -2.1314600     15.0952500     1
      1.2306000     -2.1314600     18.4497500     1
      2.4612000     -1.4209719     15.0952500     1
      2.4612000     -2.8419481     18.4497500     1
      1.2306000     -2.1314600     21.8042500     1
      1.2306000     -2.1314600     25.1587500     1
      2.4612000     -1.4209719     21.8042500     1
      2.4612000     -2.8419481     25.1587500     1
      1.2306000     -2.1314600     28.5132500     1
      1.2306000     -2.1314600     31.8677500     1
      2.4612000     -1.4209719     28.5132500     1
      2.4612000     -2.8419481     31.8677500     1
      1.2306000     -2.1314600     35.2222500     1
      1.2306000     -2.1314600     38.5767500     1
      2.4612000     -1.4209719     35.2222500     1
      2.4612000     -2.8419481     38.5767500     1
      2.4612000      0.0000000      1.6772500     1
      2.4612000      0.0000000      5.0317500     1
      3.6918000      0.7104881      1.6772500     1
      3.6918000     -0.7104881      5.0317500     1
      2.4612000      0.0000000      8.3862500     1
      2.4612000      0.0000000     11.7407500     1
      3.6918000      0.7104881      8.3862500     1
      3.6918000     -0.7104881     11.7407500     1
      2.4612000      0.0000000     15.0952500     1
      2.4612000      0.0000000     18.4497500     1
      3.6918000      0.7104881     15.0952500     1
      3.6918000     -0.7104881     18.4497500     1
      2.4612000      0.0000000     21.8042500     1
      2.4612000      0.0000000     25.1587500     1
      3.6918000      0.7104881     21.8042500     1
      3.6918000     -0.7104881     25.1587500     1
      2.4612000      0.0000000     28.5132500     1
      2.4612000      0.0000000     31.8677500     1
      3.6918000      0.7104881     28.5132500     1
      3.6918000     -0.7104881     31.8677500     1
      2.4612000      0.0000000     35.2222500     1
      2.4612000      0.0000000     38.5767500     1
      3.6918000      0.7104881     35.2222500     1
      3.6918000     -0.7104881     38.5767500     1
      3.6918000      2.1314600      1.6772500     1
      3.6918000      2.1314600      5.0317500     1
      4.9224000      2.8419481      1.6772500     1
      4.9224000      1.4209719      5.0317500     1
      3.6918000      2.1314600      8.3862500     1
      3.6918000      2.1314600     11.7407500     1
      4.9224000      2.8419481      8.3862500     1
      4.9224000      1.4209719     11.7407500     1
      3.6918000      2.1314600     15.0952500     1
      3.6918000      2.1314600     18.4497500     1
      4.9224000      2.8419481     15.0952500     1
      4.9224000      1.4209719     18.4497500     1
      3.6918000      2.1314600     21.8042500     1
      3.6918000      2.1314600     25.1587500     1
      4.9224000      2.8419481     21.8042500     1
      4.9224000      1.4209719     25.1587500     1
      3.6918000      2.1314600     28.5132500     1
      3.6918000      2.1314600     31.8677500     1
      4.9224000      2.8419481     28.5132500     1
      4.9224000      1.4209719     31.8677500     1
      3.6918000      2.1314600     35.2222500     1
      3.6918000      2.1314600     38.5767500     1
      4.9224000      2.8419481     35.2222500     1
      4.9224000      1.4209719     38.5767500     1
      4.9224000      4.2629200      1.6772500     1
      4.9224000      4.2629200      5.0317500     1
      6.1530000      4.9734081      1.6772500     1
      6.1530000      3.5524319      5.0317500     1
      4.9224000      4.2629200      8.3862500     1
      4.9224000      4.2629200     11.7407500     1
      6.1530000      4.9734081      8.3862500     1
      6.1530000      3.5524319     11.7407500     1
      4.9224000      4.2629200     15.0952500     1
      4.9224000      4.2629200     18.4497500     1
      6.1530000      4.9734081     15.0952500     1
      6.1530000      3.5524319     18.4497500     1
      4.9224000      4.2629200     21.8042500     1
      4.9224000      4.2629200     25.1587500     1
      6.1530000      4.9734081     21.8042500     1
      6.1530000      3.5524319     25.1587500     1
      4.9224000      4.2629200     28.5132500     1
      4.9224000      4.2629200     31.8677500     1
      6.1530000      4.9734081     28.5132500     1
      6.1530000      3.5524319     31.8677500     1
      4.9224000      4.2629200     35.2222500     1
      4.9224000      4.2629200     38.5767500     1
      6.1530000      4.9734081     35.2222500     1
      6.1530000      3.5524319     38.5767500     1
      6.1530000      6.3943800      1.6772500     1
      6.1530000      6.3943800      5.0317500     1
      7.3836000      7.1048681      1.6772500     1
      7.3836000      5.6838919      5.0317500     1
      6.1530000      6.3943800      8.3862500     1
      6.1530000      6.3943800     11.7407500     1
      7.3836000      7.1048681      8.3862500     1
      7.3836000      5.6838919     11.7407500     1
      6.1530000      6.3943800     15.0952500     1
      6.1530000      6.3943800     18.4497500     1
      7.3836000      7.1048681     15.0952500     1
      7.3836000      5.6838919     18.4497500     1
      6.1530000      6.3943800     21.8042500     1
      6.1530000      6.3943800     25.1587500     1
      7.3836000      7.1048681     21.8042500     1
      7.3836000      5.6838919     25.1587500     1
      6.1530000      6.3943800     28.5132500     1
      6.1530000      6.3943800     31.8677500     1
      7.3836000      7.1048681     28.5132500     1
      7.3836000      5.6838919     31.8677500     1
      6.1530000      6.3943800     35.2222500     1
      6.1530000      6.3943800     38.5767500     1
      7.3836000      7.1048681     35.2222500     1
      7.3836000      5.6838919     38.5767500     1
      7.3836000      8.5258400      1.6772500     1
      7.3836000      8.5258400      5.0317500     1
      8.6142000      9.2363281      1.6772500     1
      8.6142000      7.8153519      5.0317500     1
      7.3836000      8.5258400      8.3862500     1
      7.3836000      8.5258400     11.7407500     1
      8.6142000      9.2363281      8.3862500     1
      8.6142000      7.8153519     11.7407500     1
      7.3836000      8.5258400     15.0952500     1
      7.3836000      8.5258400     18.4497500     1
      8.6142000      9.2363281     15.0952500     1
      8.6142000      7.8153519     18.4497500     1
      7.3836000      8.5258400     21.8042500     1
      7.3836000      8.5258400     25.1587500     1
      8.6142000      9.2363281     21.8042500     1
      8.6142000      7.8153519     25.1587500     1
      7.3836000      8.5258400     28.5132500     1
      7.3836000      8.5258400     31.8677500     1
      8.6142000      9.2363281     28.5132500     1
      8.6142000      7.8153519     31.8677500     1
      7.3836000      8.5258400     35.2222500     1
      7.3836000      8.5258400     38.5767500     1
      8.6142000      9.2363281     35.2222500     1
      8.6142000      7.8153519     38.5767500     1
      2.4612000     -4.2629200      1.6772500     1
      2.4612000     -4.2629200      5.0317500     1
      3.6918000     -3.5524319      1.6772500     1
      3.6918000     -4.9734081      5.0317500     1
      2.4612000     -4.2629200      8.3862500     1
      2.4612000     -4.2629200     11.7407500     1
      3.6918000     -3.5524319      8.3862500     1
      3.6918000     -4.9734081     11.7407500     1
      2.4612000     -4.2629200     15.0952500     1
      2.4612000     -4.2629200     18.4497500     1
      3.6918000     -3.5524319     15.0952500     1
      3.6918000     -4.9734081     18.4497500     1
      2.4612000     -4.2629200     21.8042500     1
      2.4612000     -4.2629200     25.1587500     1
      3.6918000     -3.5524319     21.8042500     1
      3.6918000     -4.9734081     25.1587500     1
      2.4612000     -4.2629200     28.5132500     1
      2.4612000     -4.2629200     31.8677500     1
      3.6918000     -3.5524319     28.5132500     1
      3.6918000     -4.9734081     31.8677500     1
      2.4612000     -4.2629200     35.2222500     1
      2.4612000     -4.2629200     38.5767500     1
      3.6918000     -3.5524319     35.2222500     1
      3.6918000     -4.9734081     38.5767500     1
      3.6918000     -2.1314600      1.6772500     1
      3.6918000     -2.1314600      5.0317500     1
      4.9224000     -1.4209719      1.6772500     1
      4.9224000     -2.8419481      5.0317500     1
      3.6918000     -2.1314600      8.3862500     1
      3.6918000     -2.1314600     11.7407500     1
      4.9224000     -1.4209719      8.3862500     1
      4.9224000     -2.8419481     11.7407500     1
      3.6918000     -2.1314600     15.0952500     1
      3.6918000     -2.1314600     18.4497500     1
      4.9224000     -1.4209719     15.0952500     1
      4.9224000     -2.8419481     18.4497500     1
      3.6918000     -2.1314600     21.8042500     1
      3.6918000     -2.1314600     25.1587500     1
      4.9224000     -1.4209719     21.8042500     1
      4.9224000     -2.8419481     25.1587500     1
      3.6918000     -2.1314600     28.5132500     1
      3.6918000     -2.1314600     31.8677500     1
      4.9224000     -1.4209719     28.5132500     1
      4.9224000     -2.8419481     31.8677500     1
      3.6918000     -2.1314600     35.2222500     1
      3.6918000     -2.1314600     38.5767500     1
      4.9224000     -1.4209719     35.2222500     1
      4.9224000     -2.8419481     38.5767500     1
      4.9224000      0.0000000      1.6772500     1
      4.9224000      0.0000000      5.0317500     1
      6.1530000      0.7104881      1.6772500     1
      6.1530000     -0.7104881      5.0317500     1
      4.9224000      0.0000000      8.3862500     1
      4.9224000      0.0000000     11.7407500     1
      6.1530000      0.7104881      8.3862500     1
      6.1530000     -0.7104881     11.7407500     1
      4.9224000      0.0000000     15.0952500     1
      4.9224000      0.0000000     18.4497500     1
      6.1530000      0.7104881     15.0952500     1
      6.1530000     -0.7104881     18.4497500     1
      4.9224000      0.0000000     21.8042500     1
      4.9224000      0.0000000     25.1587500     1
      6.1530000      0.7104881     21.8042500     1
      6.1530000     -0.7104881     25.1587500     1
      4.9224000      0.0000000     28.5132500     1
      4.9224000      0.0000000     31.8677500     1
      6.1530000      0.7104881     28.5132500     1
      6.1530000     -0.7104881     31.8677500     1
      4.9224000      0.0000000     35.2222500     1
      4.9224000      0.0000000     38.5767500     1
      6.1530000      0.7104881     35.2222500     1
      6.1530000     -0.7104881     38.5767500     1
      6.1530000      2.1314600      1.6772500     1
      6.1530000      2.1314600      5.0317500     1
      7.3836000      2.8419481      1.6772500     1
      7.3836000      1.4209719      5.0317500     1
      6.1530000      2.1314600      8.3862500     1
      6.1530000      2.1314600     11.7407500     1
      7.3836000      2.8419481      8.3862500     1
      7.3836000      1.4209719     11.7407500     1
      6.1530000      2.1314600     15.0952500     1
      6.1530000      2.1314600     18.4497500     1
      7.3836000      2.8419481     15.0952500     1
      7.3836000      1.4209719     18.4497500     1
      6.1530000      2.1314600     21.8042500     1
      6.1530000      2.1314600     25.1587500     1
      7.3836000      2.8419481     21.8042500     1
      7.3836000      1.4209719     25.1587500     1
      6.1530000      2.1314600     28.5132500     1
      6.1530000      2.1314600     31.8677500     1
      7.3836000      2.8419481     28.5132500     1
      7.3836000      1.4209719     31.8677500     1
      6.1530000      2.1314600     35.2222500     1
      6.1530000      2.1314600     38.5767500     1
      7.3836000      2.8419481     35.2222500     1
      7.3836000      1.4209719     38.5767500     1
      7.3836000      4.2629200      1.6772500     1
      7.3836000      4.2629200      5.0317500     1
      8.6142000      4.9734081      1.6772500     1
      8.6142000      3.5524319      5.0317500     1
      7.3836000      4.2629200      8.3862500     1
      7.3836000      4.2629200     11.7407500     1
      8.6142000      4.9734081      8.3862500     1
      8.6142000      3.5524319     11.7407500     1
      7.3836000      4.2629200     15.0952500     1
      7.3836000      4.2629200     18.4497500     1
      8.6142000      4.9734081     15.0952500     1
      8.6142000      3.5524319     18.4497500     1
      7.3836000      4.2629200     21.8042500     1
      7.3836000      4.2629200     25.1587500     1
      8.6142000      4.9734081     21.8042500     1
      8.6142000      3.5524319     25.1587500     1
      7.3836000      4.2629200     28.5132500     1
      7.3836000      4.2629200     31.8677500     1
      8.6142000      4.9734081     28.5132500     1
      8.6142000      3.5524319     31.8677500     1
      7.3836000      4.2629200     35.2222500     1
      7.3836000      4.2629200     38.5767500     1
      8.6142000      4.9734081     35.2222500     1
      8.6142000      3.5524319     38.5767500     1
      8.6142000      6.3943800      1.6772500     1
      8.6142000      6.3943800      5.0317500     1
      9.8448000      7.1048681      1.6772500     1
      9.8448000      5.6838919      5.0317500     1
      8.6142000      6.3943800      8.3862500     1
      8.6142000      6.3943800     11.7407500     1
      9.8448000      7.1048681      8.3862500     1
      9.8448000      5.6838919     11.7407500     1
      8.6142000      6.3943800     15.0952500     1
      8.6142000      6.3943800     18.4497500     1
      9.8448000      7.1048681     15.0952500     1
      9.8448000      5.6838919     18.4497500     1
      8.6142000      6.3943800     21.8042500     1
      8.6142000      6.3943800     25.1587500     1
      9.8448000      7.1048681     21.8042500     1
      9.8448000      5.6838919     25.1587500     1
      8.6142000      6.3943800     28.5132500     1
      8.6142000      6.3943800     31.8677500     1
      9.8448000      7.1048681     28.5132500     1
      9.8448000      5.6838919     31.8677500     1
      8.6142000      6.3943800     35.2222500     1
      8.6142000      6.3943800     38.5767500     1
      9.8448000      7.1048681     35.2222500     1
      9.8448000      5.6838919     38.5767500     1
      3.6918000     -6.3943800      1.6772500     1
      3.6918000     -6.3943800      5.0317500     1
      4.9224000     -5.6838919      1.6772500     1
      4.9224000     -7.1048681      5.0317500     1
      3.6918000     -6.3943800      8.3862500     1
      3.6918000     -6.3943800     11.7407500     1
      4.9224000     -5.6838919      8.3862500     1
      4.9224000     -7.1048681     11.7407500     1
      3.6918000     -6.3943800     15.0952500     1
      3.6918000     -6.3943800     18.4497500     1
      4.9224000     -5.6838919     15.0952500     1
      4.9224000     -7.1048681     18.4497500     1
      3.6918000     -6.3943800     21.8042500     1
      3.6918000     -6.3943800     25.1587500     1
      4.9224000     -5.6838919     21.8042500     1
      4.9224000     -7.1048681     25.1587500     1
      3.6918000     -6.3943800     28.5132500     1
      3.6918000     -6.3943800     31.8677500     1
      4.9224000     -5.6838919     28.5132500     1
      4.9224000     -7.1048681     31.8677500     1
      3.6918000     -6.3943800     35.2222500     1
      3.6918000     -6.3943800     38.5767500     1
      4.9224000     -5.6838919     35.2222500     1
      4.9224000     -7.1048681     38.5767500     1
      4.9224000     -4.2629200      1.6772500     1
      4.9224000     -4.2629200      5.0317500     1
      6.1530000     -3.5524319      1.6772500     1
      6.1530000     -4.9734081      5.0317500     1
      4.9224000     -4.2629200      8.3862500     1
      4.9224000     -4.2629200     11.7407500     1
      6.1530000     -3.5524319      8.3862500     1
      6.1530000     -4.9734081     11.7407500     1
      4.9224000     -4.2629200     15.0952500     1
      4.9224000     -4.2629200     18.4497500     1
      6.1530000     -3.5524319     15.0952500     1
      6.1530000     -4.9734081     18.4497500     1
      4.9224000     -4.2629200     21.8042500     1
      4.9224000     -4.2629200     25.1587500     1
      6.1530000     -3.5524319     21.8042500     1
      6.1530000     -4.9734081     25.1587500     1
      4.9224000     -4.2629200     28.5132500     1
      4.9224000     -4.2629200     31.8677500     1
      6.1530000     -3.5524319     28.5132500     1
      6.1530000     -4.9734081     31.8677500     1
      4.9224000     -4.2629200     35.2222500     1
      4.9224000     -4.2629200     38.5767500     1
      6.1530000     -3.5524319     35.2222500     1
      6.1530000     -4.9734081     38.5767500     1
      6.1530000     -2.1314600      1.6772500     1
      6.1530000     -2.1314600      5.0317500     1
      7.3836000     -1.4209719      1.6772500     1
      7.3836000     -2.8419481      5.0317500     1
      6.1530000     -2.1314600      8.3862500     1
      6.1530000     -2.1314600     11.7407500     1
      7.3836000     -1.4209719      8.3862500     1
      7.3836000     -2.8419481     11.7407500     1
      6.1530000     -2.1314600     15.0952500     1
      6.1530000     -2.1314600     18.4497500     1
      7.3836000     -1.4209719     15.0952500     1
      7.3836000     -2.8419481     18.4497500     1
      6.1530000     -2.1314600     21.8042500     1
      6.1530000     -2.1314600     25.1587500     1
      7.3836000     -1.4209719     21.8042500     1
      7.3836000     -2.8419481     25.1587500     1
      6.1530000     -2.1314600     28.5132500     1
      6.1530000     -2.1314600     31.8677500     1
      7.3836000     -1.4209719     28.5132500     1
      7.3836000     -2.8419481     31.8677500     1
      6.1530000     -2.1314600     35.2222500     1
      6.1530000     -2.1314600     38.5767500     1
      7.3836000     -1.4209719     35.2222500     1
      7.3836000     -2.8419481     38.5767500     1
      7.3836000      0.0000000      1.6772500     1
      7.3836000      0.0000000      5.0317500     1
      8.6142000      0.7104881      1.6772500     1
      8.6142000     -0.7104881      5.0317500     1
      7.3836000      0.0000000      8.3862500     1
      7.3836000      0.0000000     11.7407500     1
      8.6142000      0.7104881      8.3862500     1
      8.6142000     -0.7104881     11.7407500     1
      7.3836000      0.0000000     15.0952500     1
      7.3836000      0.0000000     18.4497500     1
      8.6142000      0.7104881     15.0952500     1
      8.6142000     -0.7104881     18.4497500     1
      7.3836000      0.0000000     21.8042500     1
      7.3836000      0.0000000     25.1587500     1
      8.6142000      0.7104881     21.8042500     1
      8.6142000     -0.7104881     25.1587500     1
      7.3836000      0.0000000     28.5132500     1
      7.3836000      0.0000000     31.8677500     1
      8.6142000      0.7104881     28.5132500     1
      8.6142000     -0.7104881     31.8677500     1
      7.3836000      0.0000000     35.2222500     1
      7.3836000      0.0000000     38.5767500     1
      8.6142000      0.7104881     35.2222500     1
      8.6142000     -0.7104881     38.5767500     1
      8.6142000      2.1314600      1.6772500     1
      8.6142000      2.1314600      5.0317500     1
      9.8448000      2.8419481      1.6772500     1
      9.8448000      1.4209719      5.0317500     1
      8.6142000      2.1314600      8.3862500     1
      8.6142000      2.1314600     11.7407500     1
      9.8448000      2.8419481      8.3862500     1
      9.8448000      1.4209719     11.7407500     1
      8.6142000      2.1314600     15.0952500     1
      8.6142000      2.1314600     18.4497500     1
      9.8448000      2.8419481     15.0952500     1
      9.8448000      1.4209719     18.4497500     1
      8.6142000      2.1314600     21.8042500     1
      8.6142000      2.1314600     25.1587500     1
      9.8448000      2.8419481     21.8042500     1