
# ---------------------------------------------------------------------------
# Name and Label
# ---------------------------------------------------------------------------

SystemName          VNL-Export
SystemLabel         VNL-Export

# ---------------------------------------------------------------------------
# Lattice
# ---------------------------------------------------------------------------

LatticeConstant             1.00 Ang

%block LatticeVectors
    18.459000    -31.971900      0.000000
    18.459000     31.971900      0.000000
     0.000000      0.000000    100.635000
%endblock LatticeVectors

# ---------------------------------------------------------------------------
# Species and Atoms
# ---------------------------------------------------------------------------

NumberOfSpecies        1
NumberOfAtoms      13500

%block ChemicalSpeciesLabel
  1   6  C
%endblock ChemicalSpeciesLabel

# ---------------------------------------------------------------------------
# Atomic Coordinates
# ---------------------------------------------------------------------------

AtomicCoordinatesFormat Ang

%block AtomicCoordinatesAndAtomicSpecies
      0.0000000      0.0000000      1.6772500     1
      0.0000000      0.0000000      5.0317500     1
      1.2306000      0.7104881      1.6772500     1
      1.2306000     -0.7104881      5.0317500     1
      0.0000000      0.0000000      8.3862500     1
      0.0000000      0.0000000     11.7407500     1
      1.2306000      0.7104881      8.3862500     1
      1.2306000     -0.7104881     11.7407500     1
      0.0000000      0.0000000     15.0952500     1
      0.0000000      0.0000000     18.4497500     1
      1.2306000      0.7104881     15.0952500     1
      1.2306000     -0.7104881     18.4497500     1
      0.0000000      0.0000000     21.8042500     1
      0.0000000      0.0000000     25.1587500     1
      1.2306000      0.7104881     21.8042500     1
      1.2306000     -0.7104881     25.1587500     1
      0.0000000      0.0000000     28.5132500     1
      0.0000000      0.0000000     31.8677500     1
      1.2306000      0.7104881     28.5132500     1
      1.2306000     -0.7104881     31.8677500     1
      0.0000000      0.0000000     35.2222500     1
      0.0000000      0.0000000     38.5767500     1
      1.2306000      0.7104881     35.2222500     1
      1.2306000     -0.7104881     38.5767500     1
      0.0000000      0.0000000     41.9312500     1
      0.0000000      0.0000000     45.2857500     1
      1.2306000      0.7104881     41.9312500     1
      1.2306000     -0.7104881     45.2857500     1
      0.0000000      0.0000000     48.6402500     1
      0.0000000      0.0000000     51.9947500     1
      1.2306000      0.7104881     48.6402500     1
      1.2306000     -0.7104881     51.9947500     1
      0.0000000      0.0000000     55.3492500     1
      0.0000000      0.0000000     58.7037500     1
      1.2306000      0.7104881     55.3492500     1
      1.2306000     -0.7104881     58.7037500     1
      0.0000000      0.0000000     62.0582500     1
      0.0000000      0.0000000     65.4127500     1
      1.2306000      0.7104881     62.0582500     1
      1.2306000     -0.7104881     65.4127500     1
      0.0000000      0.0000000     68.7672500     1
      0.0000000      0.0000000     72.1217500     1
      1.2306000      0.7104881     68.7672500     1
      1.2306000     -0.7104881     72.1217500     1
      0.0000000      0.0000000     75.4762500     1
      0.0000000      0.0000000     78.8307500     1
      1.2306000      0.7104881     75.4762500     1
      1.2306000     -0.7104881     78.8307500     1
      0.0000000      0.0000000     82.1852500     1
      0.0000000      0.0000000     85.5397500     1
      1.2306000      0.7104881     82.1852500     1
      1.2306000     -0.7104881     85.5397500     1
      0.0000000      0.0000000     88.8942500     1
      0.0000000      0.0000000     92.2487500     1
      1.2306000      0.7104881     88.8942500     1
      1.2306000     -0.7104881     92.2487500     1
      0.0000000      0.0000000     95.6032500     1
      0.0000000      0.0000000     98.9577500     1
      1.2306000      0.7104881     95.6032500     1
      1.2306000     -0.7104881     98.9577500     1
      1.2306000      2.1314600      1.6772500     1
      1.2306000      2.1314600      5.0317500     1
      2.4612000      2.8419481      1.6772500     1
      2.4612000      1.4209719      5.0317500     1
      1.2306000      2.1314600      8.3862500     1
      1.2306000      2.1314600     11.7407500     1
      2.4612000      2.8419481      8.3862500     1
      2.4612000      1.4209719     11.7407500     1
      1.2306000      2.1314600     15.0952500     1
      1.2306000      2.1314600     18.4497500     1
      2.4612000      2.8419481     15.0952500     1
      2.4612000      1.4209719     18.4497500     1
      1.2306000      2.1314600     21.8042500     1
      1.2306000      2.1314600     25.1587500     1
      2.4612000      2.8419481     21.8042500     1
      2.4612000      1.4209719     25.1587500     1
      1.2306000      2.1314600     28.5132500     1
      1.2306000      2.1314600     31.8677500     1
      2.4612000      2.8419481     28.5132500     1
      2.4612000      1.4209719     31.8677500     1
      1.2306000      2.1314600     35.2222500     1
      1.2306000      2.1314600     38.5767500     1
      2.4612000      2.8419481     35.2222500     1
      2.4612000      1.4209719     38.5767500     1
      1.2306000      2.1314600     41.9312500     1
      1.2306000      2.1314600     45.2857500     1
      2.4612000      2.8419481     41.9312500     1
      2.4612000      1.4209719     45.2857500     1
      1.2306000      2.1314600     48.6402500     1
      1.2306000      2.1314600     51.9947500     1
      2.4612000      2.8419481     48.6402500     1
      2.4612000      1.4209719     51.9947500     1
      1.2306000      2.1314600     55.3492500     1
      1.2306000      2.1314600     58.7037500     1
      2.4612000      2.8419481     55.3492500     1
      2.4612000      1.4209719     58.7037500     1
      1.2306000      2.1314600     62.0582500     1
      1.2306000      2.1314600     65.4127500     1
      2.4612000      2.8419481     62.0582500     1
      2.4612000      1.4209719     65.4127500     1
      1.2306000      2.1314600     68.7672500     1
      1.2306000      2.1314600     72.1217500     1
      2.4612000      2.8419481     68.7672500     1
      2.4612000      1.4209719     72.1217500     1
      1.2306000      2.1314600     75.4762500     1
      1.2306000      2.1314600     78.8307500     1
      2.4612000      2.8419481     75.4762500     1
      2.4612000      1.4209719     78.8307500     1
      1.2306000      2.1314600     82.1852500     1
      1.2306000      2.1314600     85.5397500     1
      2.4612000      2.8419481     82.1852500     1
      2.4612000      1.4209719     85.5397500     1
      1.2306000      2.1314600     88.8942500     1
      1.2306000      2.1314600     92.2487500     1
      2.4612000      2.8419481     88.8942500     1
      2.4612000      1.4209719     92.2487500     1
      1.2306000      2.1314600     95.6032500     1
      1.2306000      2.1314600     98.9577500     1
      2.4612000      2.8419481     95.6032500     1
      2.4612000      1.4209719     98.9577500     1
      2.4612000      4.2629200      1.6772500     1
      2.4612000      4.2629200      5.0317500     1
      3.6918000      4.9734081      1.6772500     1
      3.6918000      3.5524319      5.0317500     1
      2.4612000      4.2629200      8.3862500     1
      2.4612000      4.2629200     11.7407500     1
      3.6918000      4.9734081      8.3862500     1
      3.6918000      3.5524319     11.7407500     1
      2.4612000      4.2629200     15.0952500     1
      2.4612000      4.2629200     18.4497500     1
      3.6918000      4.9734081     15.0952500     1
      3.6918000      3.5524319     18.4497500     1
      2.4612000      4.2629200     21.8042500     1
      2.4612000      4.2629200     25.1587500     1
      3.6918000      4.9734081     21.8042500     1
      3.6918000      3.5524319     25.1587500     1
      2.4612000      4.2629200     28.5132500     1
      2.4612000      4.2629200     31.8677500     1
      3.6918000      4.9734081     28.5132500     1
      3.6918000      3.5524319     31.8677500     1
      2.4612000      4.2629200     35.2222500     1
      2.4612000      4.2629200     38.5767500     1
      3.6918000      4.9734081     35.2222500     1
      3.6918000      3.5524319     38.5767500     1
      2.4612000      4.2629200     41.9312500     1
      2.4612000      4.2629200     45.2857500     1
      3.6918000      4.9734081     41.9312500     1
      3.6918000      3.5524319     45.2857500     1
      2.4612000      4.2629200     48.6402500     1
      2.4612000      4.2629200     51.9947500     1
      3.6918000      4.9734081     48.6402500     1
      3.6918000      3.5524319     51.9947500     1
      2.4612000      4.2629200     55.3492500     1
      2.4612000      4.2629200     58.7037500     1
      3.6918000      4.9734081     55.3492500     1
      3.6918000      3.5524319     58.7037500     1
      2.4612000      4.2629200     62.0582500     1
      2.4612000      4.2629200     65.4127500     1
      3.6918000      4.9734081     62.0582500     1
      3.6918000      3.5524319     65.4127500     1
      2.4612000      4.2629200     68.7672500     1
      2.4612000      4.2629200     72.1217500     1
      3.6918000      4.9734081     68.7672500     1
      3.6918000      3.5524319     72.1217500     1
      2.4612000      4.2629200     75.4762500     1
      2.4612000      4.2629200     78.8307500     1
      3.6918000      4.9734081     75.4762500     1
      3.6918000      3.5524319     78.8307500     1
      2.4612000      4.2629200     82.1852500     1
      2.4612000      4.2629200     85.5397500     1
      3.6918000      4.9734081     82.1852500     1
      3.6918000      3.5524319     85.5397500     1
      2.4612000      4.2629200     88.8942500     1
      2.4612000      4.2629200     92.2487500     1
      3.6918000      4.9734081     88.8942500     1
      3.6918000      3.5524319     92.2487500     1
      2.4612000      4.2629200     95.6032500     1
      2.4612000      4.2629200     98.9577500     1
      3.6918000      4.9734081     95.6032500     1
      3.6918000      3.5524319     98.9577500     1
      3.6918000      6.3943800      1.6772500     1
      3.6918000      6.3943800      5.0317500     1
      4.9224000      7.1048681      1.6772500     1
      4.9224000      5.6838919      5.0317500     1
      3.6918000      6.3943800      8.3862500     1
      3.6918000      6.3943800     11.7407500     1
      4.9224000      7.1048681      8.3862500     1
      4.9224000      5.6838919     11.7407500     1
      3.6918000      6.3943800     15.0952500     1
      3.6918000      6.3943800     18.4497500     1
      4.9224000      7.1048681     15.0952500     1
      4.9224000      5.6838919     18.4497500     1
      3.6918000      6.3943800     21.8042500     1
      3.6918000      6.3943800     25.1587500     1
      4.9224000      7.1048681     21.8042500     1
      4.9224000      5.6838919     25.1587500     1
      3.6918000      6.3943800     28.5132500     1
      3.6918000      6.3943800     31.8677500     1
      4.9224000      7.1048681     28.5132500     1
      4.9224000      5.6838919     31.8677500     1
      3.6918000      6.3943800     35.2222500     1
      3.6918000      6.3943800     38.5767500     1
      4.9224000      7.1048681     35.2222500     1
      4.9224000      5.6838919     38.5767500     1
      3.6918000      6.3943800     41.9312500     1
      3.6918000      6.3943800     45.2857500     1
      4.9224000      7.1048681     41.9312500     1
      4.9224000      5.6838919     45.2857500     1
      3.6918000      6.3943800     48.6402500     1
      3.6918000      6.3943800     51.9947500     1
      4.9224000      7.1048681     48.6402500     1
      4.9224000      5.6838919     51.9947500     1
      3.6918000      6.3943800     55.3492500     1
      3.6918000      6.3943800     58.7037500     1
      4.9224000      7.1048681     55.3492500     1
      4.9224000      5.6838919     58.7037500     1
      3.6918000      6.3943800     62.0582500     1
      3.6918000      6.3943800     65.4127500     1
      4.9224000      7.1048681     62.0582500     1
      4.9224000      5.6838919     65.4127500     1
      3.6918000      6.3943800     68.7672500     1
      3.6918000      6.3943800     72.1217500     1
      4.9224000      7.1048681     68.7672500     1
      4.9224000      5.6838919     72.1217500     1
      3.6918000      6.3943800     75.4762500     1
      3.6918000      6.3943800     78.8307500     1
      4.9224000      7.1048681     75.4762500     1
      4.9224000      5.6838919     78.8307500     1
      3.6918000      6.3943800     82.1852500     1
      3.6918000      6.3943800     85.5397500     1
      4.9224000      7.1048681     82.1852500     1
      4.9224000      5.6838919     85.5397500     1
      3.6918000      6.3943800     88.8942500     1
      3.6918000      6.3943800     92.2487500     1
      4.9224000      7.1048681     88.8942500     1
      4.9224000      5.6838919     92.2487500     1
      3.6918000      6.3943800     95.6032500     1
      3.6918000      6.3943800     98.9577500     1
      4.9224000      7.1048681     95.6032500     1
      4.9224000      5.6838919     98.9577500     1
      4.9224000      8.5258400      1.6772500     1
      4.9224000      8.5258400      5.0317500     1
      6.1530000      9.2363281      1.6772500     1
      6.1530000      7.8153519      5.0317500     1
      4.9224000      8.5258400      8.3862500     1
      4.9224000      8.5258400     11.7407500     1
      6.1530000      9.2363281      8.3862500     1
      6.1530000      7.8153519     11.7407500     1
      4.9224000      8.5258400     15.0952500     1
      4.9224000      8.5258400     18.4497500     1
      6.1530000      9.2363281     15.0952500     1
      6.1530000      7.8153519     18.4497500     1
      4.9224000      8.5258400     21.8042500     1
      4.9224000      8.5258400     25.1587500     1
      6.1530000      9.2363281     21.8042500     1
      6.1530000      7.8153519     25.1587500     1
      4.9224000      8.5258400     28.5132500     1
      4.9224000      8.5258400     31.8677500     1
      6.1530000      9.2363281     28.5132500     1
      6.1530000      7.8153519     31.8677500     1
      4.9224000      8.5258400     35.2222500     1
      4.9224000      8.5258400     38.5767500     1
      6.1530000      9.2363281     35.2222500     1
      6.1530000      7.8153519     38.5767500     1
      4.9224000      8.5258400     41.9312500     1
      4.9224000      8.5258400     45.2857500     1
      6.1530000      9.2363281     41.9312500     1
      6.1530000      7.8153519     45.2857500     1
      4.9224000      8.5258400     48.6402500     1
      4.9224000      8.5258400     51.9947500     1
      6.1530000      9.2363281     48.6402500     1
      6.1530000      7.8153519     51.9947500     1
      4.9224000      8.5258400     55.3492500     1
      4.9224000      8.5258400     58.7037500     1
      6.1530000      9.2363281     55.3492500     1
      6.1530000      7.8153519     58.7037500     1
      4.9224000      8.5258400     62.0582500     1
      4.9224000      8.5258400     65.4127500     1
      6.1530000      9.2363281     62.0582500     1
      6.1530000      7.8153519     65.4127500     1
      4.9224000      8.5258400     68.7672500     1
      4.9224000      8.5258400     72.1217500     1
      6.1530000      9.2363281     68.7672500     1
      6.1530000      7.8153519     72.1217500     1
      4.9224000      8.5258400     75.4762500     1
      4.9224000      8.5258400     78.8307500     1
      6.1530000      9.2363281     75.4762500     1
      6.1530000      7.8153519     78.8307500     1
      4.9224000      8.5258400     82.1852500     1
      4.9224000      8.5258400     85.5397500     1
      6.1530000      9.2363281     82.1852500     1
      6.1530000      7.8153519     85.5397500     1
      4.9224000      8.5258400     88.8942500     1
      4.9224000      8.5258400     92.2487500     1
      6.1530000      9.2363281     88.8942500     1
      6.1530000      7.8153519     92.2487500     1
      4.9224000      8.5258400     95.6032500     1
      4.9224000      8.5258400     98.9577500     1
      6.1530000      9.2363281     95.6032500     1
      6.1530000      7.8153519     98.9577500     1
      6.1530000     10.6573000      1.6772500     1
      6.1530000     10.6573000      5.0317500     1
      7.3836000     11.3677881      1.6772500     1
      7.3836000      9.9468119      5.0317500     1
      6.1530000     10.6573000      8.3862500     1
      6.1530000     10.6573000     11.7407500     1
      7.3836000     11.3677881      8.3862500     1
      7.3836000      9.9468119     11.7407500     1
      6.1530000     10.6573000     15.0952500     1
      6.1530000     10.6573000     18.4497500     1
      7.3836000     11.3677881     15.0952500     1
      7.3836000      9.9468119     18.4497500     1
      6.1530000     10.6573000     21.8042500     1
      6.1530000     10.6573000     25.1587500     1
      7.3836000     11.3677881     21.8042500     1
      7.3836000      9.9468119     25.1587500     1
      6.1530000     10.6573000     28.5132500     1
      6.1530000     10.6573000     31.8677500     1
      7.3836000     11.3677881     28.5132500     1
      7.3836000      9.9468119     31.8677500     1
      6.1530000     10.6573000     35.2222500     1
      6.1530000     10.6573000     38.5767500     1
      7.3836000     11.3677881     35.2222500     1
      7.3836000      9.9468119     38.5767500     1
      6.1530000     10.6573000     41.9312500     1
      6.1530000     10.6573000     45.2857500     1
      7.3836000     11.3677881     41.9312500     1
      7.3836000      9.9468119     45.2857500     1
      6.1530000     10.6573000     48.6402500     1
      6.1530000     10.6573000     51.9947500     1
      7.3836000     11.3677881     48.6402500     1
      7.3836000      9.9468119     51.9947500     1
      6.1530000     10.6573000     55.3492500     1
      6.1530000     10.6573000     58.7037500     1
      7.3836000     11.3677881     55.3492500     1
      7.3836000      9.9468119     58.7037500     1
      6.1530000     10.6573000     62.0582500     1
      6.1530000     10.6573000     65.4127500     1
      7.3836000     11.3677881     62.0582500     1
      7.3836000      9.9468119     65.4127500     1
      6.1530000     10.6573000     68.7672500     1
      6.1530000     10.6573000     72.1217500     1
      7.3836000     11.3677881     68.7672500     1
      7.3836000      9.9468119     72.1217500     1
      6.1530000     10.6573000     75.4762500     1
      6.1530000     10.6573000     78.8307500     1
      7.3836000     11.3677881     75.4762500     1
      7.3836000      9.9468119     78.8307500     1
      6.1530000     10.6573000     82.1852500     1
      6.1530000     10.6573000     85.5397500     1
      7.3836000     11.3677881     82.1852500     1
      7.3836000      9.9468119     85.5397500     1
      6.1530000     10.6573000     88.8942500     1
      6.1530000     10.6573000     92.2487500     1
      7.3836000     11.3677881     88.8942500     1
      7.3836000      9.9468119     92.2487500     1
      6.1530000     10.6573000     95.6032500     1
      6.1530000     10.6573000     98.9577500     1
      7.3836000     11.3677881     95.6032500     1
      7.3836000      9.9468119     98.9577500     1
      7.3836000     12.7887600      1.6772500     1
      7.3836000     12.7887600      5.0317500     1
      8.6142000     13.4992481      1.6772500     1
      8.6142000     12.0782719      5.0317500     1
      7.3836000     12.7887600      8.3862500     1
      7.3836000     12.7887600     11.7407500     1
      8.6142000     13.4992481      8.3862500     1
      8.6142000     12.0782719     11.7407500     1
      7.3836000     12.7887600     15.0952500     1
      7.3836000     12.7887600     18.4497500     1
      8.6142000     13.4992481     15.0952500     1
      8.6142000     12.0782719     18.4497500     1
      7.3836000     12.7887600     21.8042500     1
      7.3836000     12.7887600     25.1587500     1
      8.6142000     13.4992481     21.8042500     1
      8.6142000     12.0782719     25.1587500     1
      7.3836000     12.7887600     28.5132500     1
      7.3836000     12.7887600     31.8677500     1
      8.6142000     13.4992481     28.5132500     1
      8.6142000     12.0782719     31.8677500     1
      7.3836000     12.7887600     35.2222500     1
      7.3836000     12.7887600     38.5767500     1
      8.6142000     13.4992481     35.2222500     1
      8.6142000     12.0782719     38.5767500     1
      7.3836000     12.7887600     41.9312500     1
      7.3836000     12.7887600     45.2857500     1
      8.6142000     13.4992481     41.9312500     1
      8.6142000     12.0782719     45.2857500     1
      7.3836000     12.7887600     48.6402500     1
      7.3836000     12.7887600     51.9947500     1
      8.6142000     13.4992481     48.6402500     1
      8.6142000     12.0782719     51.9947500     1
      7.3836000     12.7887600     55.3492500     1
      7.3836000     12.7887600     58.7037500     1
      8.6142000     13.4992481     55.3492500     1
      8.6142000     12.0782719     58.7037500     1
      7.3836000     12.7887600     62.0582500     1
      7.3836000     12.7887600     65.4127500     1
      8.6142000     13.4992481     62.0582500     1
      8.6142000     12.0782719     65.4127500     1
      7.3836000     12.7887600     68.7672500     1
      7.3836000     12.7887600     72.1217500     1
      8.6142000     13.4992481     68.7672500     1
      8.6142000     12.0782719     72.1217500     1
      7.3836000     12.7887600     75.4762500     1
      7.3836000     12.7887600     78.8307500     1
      8.6142000     13.4992481     75.4762500     1
      8.6142000     12.0782719     78.8307500     1
      7.3836000     12.7887600     82.1852500     1
      7.3836000     12.7887600     85.5397500     1
      8.6142000     13.4992481     82.1852500     1
      8.6142000     12.0782719     85.5397500     1
      7.3836000     12.7887600     88.8942500     1
      7.3836000     12.7887600     92.2487500     1
      8.6142000     13.4992481     88.8942500     1
      8.6142000     12.0782719     92.2487500     1
      7.3836000     12.7887600     95.6032500     1
      7.3836000     12.7887600     98.9577500     1
      8.6142000     13.4992481     95.6032500     1
      8.6142000     12.0782719     98.9577500     1
      8.6142000     14.9202200      1.6772500     1
      8.6142000     14.9202200      5.0317500     1
      9.8448000     15.6307081      1.6772500     1
      9.8448000     14.2097319      5.0317500     1
      8.6142000     14.9202200      8.3862500     1
      8.6142000     14.9202200     11.7407500     1
      9.8448000     15.6307081      8.3862500     1
      9.8448000     14.2097319     11.7407500     1
      8.6142000     14.9202200     15.0952500     1
      8.6142000     14.9202200     18.4497500     1
      9.8448000     15.6307081     15.0952500     1
      9.8448000     14.2097319     18.4497500     1
      8.6142000     14.9202200     21.8042500     1
      8.6142000     14.9202200     25.1587500     1
      9.8448000     15.6307081     21.8042500     1
      9.8448000     14.2097319     25.1587500     1
      8.6142000     14.9202200     28.5132500     1
      8.6142000     14.9202200     31.8677500     1
      9.8448000     15.6307081     28.5132500     1
      9.8448000     14.2097319     31.8677500     1
      8.6142000     14.9202200     35.2222500     1
      8.6142000     14.9202200     38.5767500     1
      9.8448000     15.6307081     35.2222500     1
      9.8448000     14.2097319     38.5767500     1
      8.6142000     14.9202200     41.9312500     1
      8.6142000     14.9202200     45.2857500     1
      9.8448000     15.6307081     41.9312500     1
      9.8448000     14.2097319     45.2857500     1
      8.6142000     14.9202200     48.6402500     1
      8.6142000     14.9202200     51.9947500     1
      9.8448000     15.6307081     48.6402500     1
      9.8448000     14.2097319     51.9947500     1
      8.6142000     14.9202200     55.3492500     1
      8.6142000     14.9202200     58.7037500     1
      9.8448000     15.6307081     55.3492500     1
      9.8448000     14.2097319     58.7037500     1
      8.6142000     14.9202200     62.0582500     1
      8.6142000     14.9202200     65.4127500     1
      9.8448000     15.6307081     62.0582500     1
      9.8448000     14.2097319     65.4127500     1
      8.6142000     14.9202200     68.7672500     1
      8.6142000     14.9202200     72.1217500     1
      9.8448000     15.6307081     68.7672500     1
      9.8448000     14.2097319     72.1217500     1
      8.6142000     14.9202200     75.4762500     1
      8.6142000     14.9202200     78.8307500     1
      9.8448000     15.6307081     75.4762500     1
      9.8448000     14.2097319     78.8307500     1
      8.6142000     14.9202200     82.1852500     1
      8.6142000     14.9202200     85.5397500     1
      9.8448000     15.6307081     82.1852500     1
      9.8448000     14.2097319     85.5397500     1
      8.6142000     14.9202200     88.8942500     1
      8.6142000     14.9202200     92.2487500     1
      9.8448000     15.6307081     88.8942500     1
      9.8448000     14.2097319     92.2487500     1
      8.6142000     14.9202200     95.6032500     1
      8.6142000     14.9202200     98.9577500     1
      9.8448000     15.6307081     95.6032500     1
      9.8448000     14.2097319     98.9577500     1
      9.8448000     17.0516800      1.6772500     1
      9.8448000     17.0516800      5.0317500     1
     11.0754000     17.7621681      1.6772500     1
     11.0754000     16.3411919      5.0317500     1
      9.8448000     17.0516800      8.3862500     1
      9.8448000     17.0516800     11.7407500     1
     11.0754000     17.7621681      8.3862500     1
     11.0754000     16.3411919     11.7407500     1
      9.8448000     17.0516800     15.0952500     1
      9.8448000     17.0516800     18.4497500     1
     11.0754000     17.7621681     15.0952500     1
     11.0754000     16.3411919     18.4497500     1
      9.8448000     17.0516800     21.8042500     1
      9.8448000     17.0516800     25.1587500     1
     11.0754000     17.7621681     21.8042500     1
     11.0754000     16.3411919     25.1587500     1
      9.8448000     17.0516800     28.5132500     1
      9.8448000     17.0516800     31.8677500     1
     11.0754000     17.7621681     28.5132500     1
     11.0754000     16.3411919     31.8677500     1
      9.8448000     17.0516800     35.2222500     1
      9.8448000     17.0516800     38.5767500     1
     11.0754000     17.7621681     35.2222500     1
     11.0754000     16.3411919     38.5767500     1
      9.8448000     17.0516800     41.9312500     1
      9.8448000     17.0516800     45.2857500     1
     11.0754000     17.7621681     41.9312500     1
     11.0754000     16.3411919     45.2857500     1
      9.8448000     17.0516800     48.6402500     1
      9.8448000     17.0516800     51.9947500     1
     11.0754000     17.7621681     48.6402500     1
     11.0754000     16.3411919     51.9947500     1
      9.8448000     17.0516800     55.3492500     1
      9.8448000     17.0516800     58.7037500     1
     11.0754000     17.7621681     55.3492500     1
     11.0754000     16.3411919     58.7037500     1
      9.8448000     17.0516800     62.0582500     1
      9.8448000     17.0516800     65.4127500     1
     11.0754000     17.7621681     62.0582500     1
     11.0754000     16.3411919     65.4127500     1
      9.8448000     17.0516800     68.7672500     1
      9.8448000     17.0516800     72.1217500     1
     11.0754000     17.7621681     68.7672500     1
     11.0754000     16.3411919     72.1217500     1
      9.8448000     17.0516800     75.4762500     1
      9.8448000     17.0516800     78.8307500     1
     11.0754000     17.7621681     75.4762500     1
     11.0754000     16.3411919     78.8307500     1
      9.8448000     17.0516800     82.1852500     1
      9.8448000     17.0516800     85.5397500     1
     11.0754000     17.7621681     82.1852500     1
     11.0754000     16.3411919     85.5397500     1
      9.8448000     17.0516800     88.8942500     1
      9.8448000     17.0516800     92.2487500     1
     11.0754000     17.7621681     88.8942500     1
     11.0754000     16.3411919     92.2487500     1
      9.8448000     17.0516800     95.6032500     1
      9.8448000     17.0516800     98.9577500     1
     11.0754000     17.7621681     95.6032500     1
     11.0754000     16.3411919     98.9577500     1
     11.0754000     19.1831400      1.6772500     1
     11.0754000     19.1831400      5.0317500     1
     12.3060000     19.8936281      1.6772500     1