lattice_vector           25.00000000           0.00000000           0.00000000
lattice_vector          -12.50000000          21.65000000           0.00000000
lattice_vector            0.00000000           0.00000000         170.40000000

atom_frac            0.08232610           0.00000000           0.24996975 C 
atom_frac            0.09454650           0.05592450           0.00419330 C 
atom_frac            0.09454660           0.05592450           0.01247338 C 
atom_frac            0.08232610           0.00000002           0.01669685 C 
atom_frac            0.07072190           0.09049270           0.24997075 C 
atom_frac            0.01977080           0.09049270           0.00419602 C 
atom_frac            0.01977080           0.09049260           0.01247065 C 
atom_frac            0.07072190           0.09049270           0.01669602 C 
atom_frac            0.96137800           0.05592450           0.24997325 C 
atom_frac            0.91767400           0.00000003           0.00419685 C 
atom_frac            0.91767400           0.00000001           0.01246980 C 
atom_frac            0.96137800           0.05592450           0.01669330 C 
atom_frac            0.90545300           0.94407500           0.24997325 C 
atom_frac            0.92927800           0.90950700           0.00419602 C 
atom_frac            0.92927800           0.90950700           0.01247065 C 
atom_frac            0.90545300           0.94407500           0.01669330 C 
atom_frac            0.98022900           0.90950700           0.24997075 C 
atom_frac            0.03862200           0.94407500           0.00419330 C 
atom_frac            0.03862200           0.94407500           0.01247338 C 
atom_frac            0.98022900           0.90950700           0.01669602 C 
atom_frac            0.08232610           0.00000000           0.02496980 C 
atom_frac            0.09454650           0.05592450           0.02919325 C 
atom_frac            0.09454660           0.05592450           0.03747350 C 
atom_frac            0.08232610           0.00000002           0.04169675 C 
atom_frac            0.07072190           0.09049270           0.02497065 C 
atom_frac            0.01977080           0.09049270           0.02919600 C 
atom_frac            0.01977080           0.09049260           0.03747075 C 
atom_frac            0.07072190           0.09049270           0.04169600 C 
atom_frac            0.96137800           0.05592450           0.02497337 C 
atom_frac            0.91767400           0.00000003           0.02919675 C 
atom_frac            0.91767400           0.00000001           0.03746975 C 
atom_frac            0.96137800           0.05592450           0.04169325 C 
atom_frac            0.90545300           0.94407500           0.02497337 C 
atom_frac            0.92927800           0.90950700           0.02919600 C 
atom_frac            0.92927800           0.90950700           0.03747075 C 
atom_frac            0.90545300           0.94407500           0.04169325 C 
atom_frac            0.98022900           0.90950700           0.02497065 C 
atom_frac            0.03862200           0.94407500           0.02919325 C 
atom_frac            0.03862200           0.94407500           0.03747350 C 
atom_frac            0.98022900           0.90950700           0.04169600 C 
atom_frac            0.08232610           0.00000000           0.04996975 C 
atom_frac            0.09454650           0.05592450           0.05419325 C 
atom_frac            0.09454660           0.05592450           0.06247350 C 
atom_frac            0.08232610           0.00000002           0.06669675 C 
atom_frac            0.07072190           0.09049270           0.04997075 C 
atom_frac            0.01977080           0.09049270           0.05419600 C 
atom_frac            0.01977080           0.09049260           0.06247075 C 
atom_frac            0.07072190           0.09049270           0.06669600 C 
atom_frac            0.96137800           0.05592450           0.04997325 C 
atom_frac            0.91767400           0.00000003           0.05419675 C 
atom_frac            0.91767400           0.00000001           0.06246975 C 
atom_frac            0.96137800           0.05592450           0.06669325 C 
atom_frac            0.90545300           0.94407500           0.04997325 C 
atom_frac            0.92927800           0.90950700           0.05419600 C 
atom_frac            0.92927800           0.90950700           0.06247075 C 
atom_frac            0.90545300           0.94407500           0.06669325 C 
atom_frac            0.98022900           0.90950700           0.04997075 C 
atom_frac            0.03862200           0.94407500           0.05419325 C 
atom_frac            0.03862200           0.94407500           0.06247350 C 
atom_frac            0.98022900           0.90950700           0.06669600 C 
atom_frac            0.08232610           0.00000000           0.07496975 C 
atom_frac            0.09454650           0.05592450           0.07919325 C 
atom_frac            0.09454660           0.05592450           0.08747350 C 
atom_frac            0.08232610           0.00000002           0.09169675 C 
atom_frac            0.07072190           0.09049270           0.07497075 C 
atom_frac            0.01977080           0.09049270           0.07919600 C 
atom_frac            0.01977080           0.09049260           0.08747075 C 
atom_frac            0.07072190           0.09049270           0.09169600 C 
atom_frac            0.96137800           0.05592450           0.07497325 C 
atom_frac            0.91767400           0.00000003           0.07919675 C 
atom_frac            0.91767400           0.00000001           0.08746975 C 
atom_frac            0.96137800           0.05592450           0.09169325 C 
atom_frac            0.90545300           0.94407500           0.07497325 C 
atom_frac            0.92927800           0.90950700           0.07919600 C 
atom_frac            0.92927800           0.90950700           0.08747075 C 
atom_frac            0.90545300           0.94407500           0.09169325 C 
atom_frac            0.98022900           0.90950700           0.07497075 C 
atom_frac            0.03862200           0.94407500           0.07919325 C 
atom_frac            0.03862200           0.94407500           0.08747350 C 
atom_frac            0.98022900           0.90950700           0.09169600 C 
atom_frac            0.08232610           0.00000000           0.09996975 C 
atom_frac            0.09454650           0.05592450           0.10419325 C 
atom_frac            0.09454660           0.05592450           0.11247350 C 
atom_frac            0.08232610           0.00000002           0.11669675 C 
atom_frac            0.07072190           0.09049270           0.09997075 C 
atom_frac            0.01977080           0.09049270           0.10419600 C 
atom_frac            0.01977080           0.09049260           0.11247075 C 
atom_frac            0.07072190           0.09049270           0.11669600 C 
atom_frac            0.96137800           0.05592450           0.09997325 C 
atom_frac            0.91767400           0.00000003           0.10419675 C 
atom_frac            0.91767400           0.00000001           0.11246975 C 
atom_frac            0.96137800           0.05592450           0.11669325 C 
atom_frac            0.90545300           0.94407500           0.09997325 C 
atom_frac            0.92927800           0.90950700           0.10419600 C 
atom_frac            0.92927800           0.90950700           0.11247075 C 
atom_frac            0.90545300           0.94407500           0.11669325 C 
atom_frac            0.98022900           0.90950700           0.09997075 C 
atom_frac            0.03862200           0.94407500           0.10419325 C 
atom_frac            0.03862200           0.94407500           0.11247350 C 
atom_frac            0.98022900           0.90950700           0.11669600 C 
atom_frac            0.08232610           0.00000000           0.12496975 C 
atom_frac            0.09454650           0.05592450           0.12919325 C 
atom_frac            0.09454660           0.05592450           0.13747350 C 
atom_frac            0.08232610           0.00000002           0.14169675 C 
atom_frac            0.07072190           0.09049270           0.12497075 C 
atom_frac            0.01977080           0.09049270           0.12919600 C 
atom_frac            0.01977080           0.09049260           0.13747075 C 
atom_frac            0.07072190           0.09049270           0.14169600 C 
atom_frac            0.96137800           0.05592450           0.12497325 C 
atom_frac            0.91767400           0.00000003           0.12919675 C 
atom_frac            0.91767400           0.00000001           0.13746975 C 
atom_frac            0.96137800           0.05592450           0.14169325 C 
atom_frac            0.90545300           0.94407500           0.12497325 C 
atom_frac            0.92927800           0.90950700           0.12919600 C 
atom_frac            0.92927800           0.90950700           0.13747075 C 
atom_frac            0.90545300           0.94407500           0.14169325 C 
atom_frac            0.98022900           0.90950700           0.12497075 C 
atom_frac            0.03862200           0.94407500           0.12919325 C 
atom_frac            0.03862200           0.94407500           0.13747350 C 
atom_frac            0.98022900           0.90950700           0.14169600 C 
atom_frac            0.08232610           0.00000000           0.14996975 C 
atom_frac            0.09454650           0.05592450           0.15419325 C 
atom_frac            0.09454660           0.05592450           0.16247350 C 
atom_frac            0.08232610           0.00000002           0.16669675 C 
atom_frac            0.07072190           0.09049270           0.14997075 C 
atom_frac            0.01977080           0.09049270           0.15419600 C 
atom_frac            0.01977080           0.09049260           0.16247075 C 
atom_frac            0.07072190           0.09049270           0.16669600 C 
atom_frac            0.96137800           0.05592450           0.14997325 C 
atom_frac            0.91767400           0.00000003           0.15419675 C 
atom_frac            0.91767400           0.00000001           0.16246975 C 
atom_frac            0.96137800           0.05592450           0.16669325 C 
atom_frac            0.90545300           0.94407500           0.14997325 C 
atom_frac            0.92927800           0.90950700           0.15419600 C 
atom_frac            0.92927800           0.90950700           0.16247075 C 
atom_frac            0.90545300           0.94407500           0.16669325 C 
atom_frac            0.98022900           0.90950700           0.14997075 C 
atom_frac            0.03862200           0.94407500           0.15419325 C 
atom_frac            0.03862200           0.94407500           0.16247350 C 
atom_frac            0.98022900           0.90950700           0.16669600 C 
atom_frac            0.08232610           0.00000000           0.17496975 C 
atom_frac            0.09454650           0.05592450           0.17919325 C 
atom_frac            0.09454660           0.05592450           0.18747350 C 
atom_frac            0.08232610           0.00000002           0.19169675 C 
atom_frac            0.07072190           0.09049270           0.17497075 C 
atom_frac            0.01977080           0.09049270           0.17919600 C 
atom_frac            0.01977080           0.09049260           0.18747075 C 
atom_frac            0.07072190           0.09049270           0.19169600 C 
atom_frac            0.96137800           0.05592450           0.17497325 C 
atom_frac            0.91767400           0.00000003           0.17919675 C 
atom_frac            0.91767400           0.00000001           0.18746975 C 
atom_frac            0.96137800           0.05592450           0.19169325 C 
atom_frac            0.90545300           0.94407500           0.17497325 C 
atom_frac            0.92927800           0.90950700           0.17919600 C 
atom_frac            0.92927800           0.90950700           0.18747075 C 
atom_frac            0.90545300           0.94407500           0.19169325 C 
atom_frac            0.98022900           0.90950700           0.17497075 C 
atom_frac            0.03862200           0.94407500           0.17919325 C 
atom_frac            0.03862200           0.94407500           0.18747350 C 
atom_frac            0.98022900           0.90950700           0.19169600 C 
atom_frac            0.08232610           0.00000000           0.19996975 C 
atom_frac            0.09454650           0.05592450           0.20419325 C 
atom_frac            0.09454660           0.05592450           0.21247325 C 
atom_frac            0.08232610           0.00000002           0.21669675 C 
atom_frac            0.07072190           0.09049270           0.19997075 C 
atom_frac            0.01977080           0.09049270           0.20419600 C 
atom_frac            0.01977080           0.09049260           0.21247075 C 
atom_frac            0.07072190           0.09049270           0.21669600 C 
atom_frac            0.96137800           0.05592450           0.19997325 C 
atom_frac            0.91767400           0.00000003           0.20419675 C 
atom_frac            0.91767400           0.00000001           0.21246975 C 
atom_frac            0.96137800           0.05592450           0.21669325 C 
atom_frac            0.90545300           0.94407500           0.19997325 C 
atom_frac            0.92927800           0.90950700           0.20419600 C 
atom_frac            0.92927800           0.90950700           0.21247075 C 
atom_frac            0.90545300           0.94407500           0.21669325 C 
atom_frac            0.98022900           0.90950700           0.19997075 C 
atom_frac            0.03862200           0.94407500           0.20419325 C 
atom_frac            0.03862200           0.94407500           0.21247325 C 
atom_frac            0.98022900           0.90950700           0.21669600 C 
atom_frac            0.08232610           0.00000000           0.22496975 C 
atom_frac            0.09454650           0.05592450           0.22919325 C 
atom_frac            0.09454660           0.05592450           0.23747325 C 
atom_frac            0.08232610           0.00000002           0.24169675 C 
atom_frac            0.07072190           0.09049270           0.22497075 C 
atom_frac            0.01977080           0.09049270           0.22919600 C 
atom_frac            0.01977080           0.09049260           0.23747075 C 
atom_frac            0.07072190           0.09049270           0.24169600 C 
atom_frac            0.96137800           0.05592450           0.22497325 C 
atom_frac            0.91767400           0.00000003           0.22919675 C 
atom_frac            0.91767400           0.00000001           0.23746975 C 
atom_frac            0.96137800           0.05592450           0.24169325 C 
atom_frac            0.90545300           0.94407500           0.22497325 C 
atom_frac            0.92927800           0.90950700           0.22919600 C 
atom_frac            0.92927800           0.90950700           0.23747075 C 
atom_frac            0.90545300           0.94407500           0.24169325 C 
atom_frac            0.98022900           0.90950700           0.22497075 C 
atom_frac            0.03862200           0.94407500           0.22919325 C 
atom_frac            0.03862200           0.94407500           0.23747325 C 
atom_frac            0.98022900           0.90950700           0.24169600 C 
atom_frac            0.08232610           0.00000000           0.49996975 C 
atom_frac            0.09454650           0.05592450           0.25419330 C 
atom_frac            0.09454660           0.05592450           0.26247338 C 
atom_frac            0.08232610           0.00000002           0.26669685 C 
atom_frac            0.07072190           0.09049270           0.49997075 C 
atom_frac            0.01977080           0.09049270           0.25419602 C 
atom_frac            0.01977080           0.09049260           0.26247065 C 
atom_frac            0.07072190           0.09049270           0.26669603 C 
atom_frac            0.96137800           0.05592450           0.49997325 C 
atom_frac            0.91767400           0.00000003           0.25419685 C 
atom_frac            0.91767400           0.00000001           0.26246980 C 
atom_frac            0.96137800           0.05592450           0.26669330 C 
atom_frac            0.90545300           0.94407500           0.49997325 C 
atom_frac            0.92927800           0.90950700           0.25419602 C 
atom_frac            0.92927800           0.90950700           0.26247065 C 
atom_frac            0.90545300           0.94407500           0.26669330 C 
atom_frac            0.98022900           0.90950700           0.49997075 C 
atom_frac            0.03862200           0.94407500           0.25419330 C 
atom_frac            0.03862200           0.94407500           0.26247338 C 
atom_frac            0.98022900           0.90950700           0.26669603 C 
atom_frac            0.08232610           0.00000000           0.27496980 C 
atom_frac            0.09454650           0.05592450           0.27919325 C 
atom_frac            0.09454660           0.05592450           0.28747350 C 
atom_frac            0.08232610           0.00000002           0.29169675 C 
atom_frac            0.07072190           0.09049270           0.27497065 C 
atom_frac            0.01977080           0.09049270           0.27919600 C 
atom_frac            0.01977080           0.09049260           0.28747075 C 
atom_frac            0.07072190           0.09049270           0.29169600 C 
atom_frac            0.96137800           0.05592450           0.27497338 C 
atom_frac            0.91767400           0.00000003           0.27919675 C 
atom_frac            0.91767400           0.00000001           0.28746975 C 
atom_frac            0.96137800           0.05592450           0.29169325 C 
atom_frac            0.90545300           0.94407500           0.27497338 C 
atom_frac            0.92927800           0.90950700           0.27919600 C 
atom_frac            0.92927800           0.90950700           0.28747075 C 
atom_frac            0.90545300           0.94407500           0.29169325 C 
atom_frac            0.98022900           0.90950700           0.27497065 C 
atom_frac            0.03862200           0.94407500           0.27919325 C 
atom_frac            0.03862200           0.94407500           0.28747350 C 
atom_frac            0.98022900           0.90950700           0.29169600 C 
atom_frac            0.08232610           0.00000000           0.29996975 C 
atom_frac            0.09454650           0.05592450           0.30419325 C 
atom_frac            0.09454660           0.05592450           0.31247350 C 
atom_frac            0.08232610           0.00000002           0.31669675 C 
atom_frac            0.07072190           0.09049270           0.29997075 C 
atom_frac            0.01977080           0.09049270           0.30419600 C 
atom_frac            0.01977080           0.09049260           0.31247075 C 
atom_frac            0.07072190           0.09049270           0.31669600 C 
atom_frac            0.96137800           0.05592450           0.29997325 C 
atom_frac            0.91767400           0.00000003           0.30419675 C 
atom_frac            0.91767400           0.00000001           0.31246975 C 
atom_frac            0.96137800           0.05592450           0.31669325 C 
atom_frac            0.90545300           0.94407500           0.29997325 C 
atom_frac            0.92927800           0.90950700           0.30419600 C 
atom_frac            0.92927800           0.90950700           0.31247075 C 
atom_frac            0.90545300           0.94407500           0.31669325 C 
atom_frac            0.98022900           0.90950700           0.29997075 C 
atom_frac            0.03862200           0.94407500           0.30419325 C 
atom_frac            0.03862200           0.94407500           0.31247350 C 
atom_frac            0.98022900           0.90950700           0.31669600 C 
atom_frac            0.08232610           0.00000000           0.32496975 C 
atom_frac            0.09454650           0.05592450           0.32919325 C 
atom_frac            0.09454660           0.05592450           0.33747350 C 
atom_frac            0.08232610           0.00000002           0.34169675 C 
atom_frac            0.07072190           0.09049270           0.32497075 C 
atom_frac            0.01977080           0.09049270           0.32919600 C 
atom_frac            0.01977080           0.09049260           0.33747075 C 
atom_frac            0.07072190           0.09049270           0.34169600 C 
atom_frac            0.96137800           0.05592450           0.32497325 C 
atom_frac            0.91767400           0.00000003           0.32919675 C 
atom_frac            0.91767400           0.00000001           0.33746975 C 
atom_frac            0.96137800           0.05592450           0.34169325 C 
atom_frac            0.90545300           0.94407500           0.32497325 C 
atom_frac            0.92927800           0.90950700           0.32919600 C 
atom_frac            0.92927800           0.90950700           0.33747075 C 
atom_frac            0.90545300           0.94407500           0.34169325 C 
atom_frac            0.98022900           0.90950700           0.32497075 C 
atom_frac            0.03862200           0.94407500           0.32919325 C 
atom_frac            0.03862200           0.94407500           0.33747350 C 
atom_frac            0.98022900           0.90950700           0.34169600 C 
atom_frac            0.08232610           0.00000000           0.34996975 C 
atom_frac            0.09454650           0.05592450           0.35419325 C 
atom_frac            0.09454660           0.05592450           0.36247350 C 
atom_frac            0.08232610           0.00000002           0.36669675 C 
atom_frac            0.07072190           0.09049270           0.34997075 C 
atom_frac            0.01977080           0.09049270           0.35419600 C 
atom_frac            0.01977080           0.09049260           0.36247075 C 
atom_frac            0.07072190           0.09049270           0.36669600 C 
atom_frac            0.96137800           0.05592450           0.34997325 C 
atom_frac            0.91767400           0.00000003           0.35419675 C 
atom_frac            0.91767400           0.00000001           0.36246975 C 
atom_frac            0.96137800           0.05592450           0.36669325 C 
atom_frac            0.90545300           0.94407500           0.34997325 C 
atom_frac            0.92927800           0.90950700           0.35419600 C 
atom_frac            0.92927800           0.90950700           0.36247075 C 
atom_frac            0.90545300           0.94407500           0.36669325 C 
atom_frac            0.98022900           0.90950700           0.34997075 C 
atom_frac            0.03862200           0.94407500           0.35419325 C 
atom_frac            0.03862200           0.94407500           0.36247350 C 
atom_frac            0.98022900           0.90950700           0.36669600 C 
atom_frac            0.08232610           0.00000000           0.37496975 C 
atom_frac            0.09454650           0.05592450           0.37919325 C 
atom_frac            0.09454660           0.05592450           0.38747350 C 
atom_frac            0.08232610           0.00000002           0.39169675 C 
atom_frac            0.07072190           0.09049270           0.37497075 C 
atom_frac            0.01977080           0.09049270           0.37919600 C 
atom_frac            0.01977080           0.09049260           0.38747075 C 
atom_frac            0.07072190           0.09049270           0.39169600 C 
atom_frac            0.96137800           0.05592450           0.37497325 C 
atom_frac            0.91767400           0.00000003           0.37919675 C 
atom_frac            0.91767400           0.00000001           0.38746975 C 
atom_frac            0.96137800           0.05592450           0.39169325 C 
atom_frac            0.90545300           0.94407500           0.37497325 C 
atom_frac            0.92927800           0.90950700           0.37919600 C 
atom_frac            0.92927800           0.90950700           0.38747075 C 
atom_frac            0.90545300           0.94407500           0.39169325 C 
atom_frac            0.98022900           0.90950700           0.37497075 C 
atom_frac            0.03862200           0.94407500           0.37919325 C 
atom_frac            0.03862200           0.94407500           0.38747350 C 
atom_frac            0.98022900           0.90950700           0.39169600 C 
atom_frac            0.08232610           0.00000000           0.39996975 C 
atom_frac            0.09454650           0.05592450           0.40419325 C 
atom_frac            0.09454660           0.05592450           0.41247350 C 
atom_frac            0.08232610           0.00000002           0.41669675 C 
atom_frac            0.07072190           0.09049270           0.39997075 C 
atom_frac            0.01977080           0.09049270           0.40419600 C 
atom_frac            0.01977080           0.09049260           0.41247075 C 
atom_frac            0.07072190           0.09049270           0.41669600 C 
atom_frac            0.96137800           0.05592450           0.39997325 C 
atom_frac            0.91767400           0.00000003           0.40419675 C 
atom_frac            0.91767400           0.00000001           0.41246975 C 
atom_frac            0.96137800           0.05592450           0.41669325 C 
atom_frac            0.90545300           0.94407500           0.39997325 C 
atom_frac            0.92927800           0.90950700           0.40419600 C 
atom_frac            0.92927800           0.90950700           0.41247075 C 
atom_frac            0.90545300           0.94407500           0.41669325 C 
atom_frac            0.98022900           0.90950700           0.39997075 C 
atom_frac            0.03862200           0.94407500           0.40419325 C 
atom_frac            0.03862200           0.94407500           0.41247350 C 
atom_frac            0.98022900           0.90950700           0.41669600 C 
atom_frac            0.08232610           0.00000000           0.42496975 C 
atom_frac            0.09454650           0.05592450           0.42919325 C 
atom_frac            0.09454660           0.05592450           0.43747350 C 
atom_frac            0.08232610           0.00000002           0.44169675 C 
atom_frac            0.07072190           0.09049270           0.42497075 C 
atom_frac            0.01977080           0.09049270           0.42919600 C 
atom_frac            0.01977080           0.09049260           0.43747075 C 
atom_frac            0.07072190           0.09049270           0.44169600 C 
atom_frac            0.96137800           0.05592450           0.42497325 C 
atom_frac            0.91767400           0.00000003           0.42919675 C 
atom_frac            0.91767400           0.00000001           0.43746975 C 
atom_frac            0.96137800           0.05592450           0.44169325 C 
atom_frac            0.90545300           0.94407500           0.42497325 C 
atom_frac            0.92927800           0.90950700           0.42919600 C 
atom_frac            0.92927800           0.90950700           0.43747075 C 
atom_frac            0.90545300           0.94407500           0.44169325 C 
atom_frac            0.98022900           0.90950700           0.42497075 C 
atom_frac            0.03862200           0.94407500           0.42919325 C 
atom_frac            0.03862200           0.94407500           0.43747350 C 
atom_frac            0.98022900           0.90950700           0.44169600 C 
atom_frac            0.08232610           0.00000000           0.44996975 C 
atom_frac            0.09454650           0.05592450           0.45419325 C 
atom_frac            0.09454660           0.05592450           0.46247325 C 
atom_frac            0.08232610           0.00000002           0.46669675 C 
atom_frac            0.07072190           0.09049270           0.44997075 C 
atom_frac            0.01977080           0.09049270           0.45419600 C 
atom_frac            0.01977080           0.09049260           0.46247075 C 
atom_frac            0.07072190           0.09049270           0.46669600 C 
atom_frac            0.96137800           0.05592450           0.44997325 C 
atom_frac            0.91767400           0.00000003           0.45419675 C 
atom_frac            0.91767400           0.00000001           0.46246975 C 
atom_frac            0.96137800           0.05592450           0.46669325 C 
atom_frac            0.90545300           0.94407500           0.44997325 C 
atom_frac            0.92927800           0.90950700           0.45419600 C 
atom_frac            0.92927800           0.90950700           0.46247075 C 
atom_frac            0.90545300           0.94407500           0.46669325 C 
atom_frac            0.98022900           0.90950700           0.44997075 C 
atom_frac            0.03862200           0.94407500           0.45419325 C 
atom_frac            0.03862200           0.94407500           0.46247325 C 
atom_frac            0.98022900           0.90950700           0.46669600 C 
atom_frac            0.08232610           0.00000000           0.47496975 C 
atom_frac            0.09454650           0.05592450           0.47919325 C 
atom_frac            0.09454660           0.05592450           0.48747325 C 
atom_frac            0.08232610           0.00000002           0.49169675 C 
atom_frac            0.07072190           0.09049270           0.47497075 C 
atom_frac            0.01977080           0.09049270           0.47919600 C 