lattice_vector           25.00000000           0.00000000           0.00000000
lattice_vector          -12.50000000          21.65000000           0.00000000
lattice_vector            0.00000000           0.00000000          42.60000000

atom_frac            0.08232610           0.00000000           0.99987900 C 
atom_frac            0.09454650           0.05592450           0.01677320 C 
atom_frac            0.09454660           0.05592450           0.04989350 C 
atom_frac            0.08232610           0.00000002           0.06678740 C 
atom_frac            0.07072190           0.09049270           0.99988300 C 
atom_frac            0.01977080           0.09049270           0.01678410 C 
atom_frac            0.01977080           0.09049260           0.04988260 C 
atom_frac            0.07072190           0.09049270           0.06678410 C 
atom_frac            0.96137800           0.05592450           0.99989300 C 
atom_frac            0.91767400           0.00000003           0.01678740 C 
atom_frac            0.91767400           0.00000001           0.04987920 C 
atom_frac            0.96137800           0.05592450           0.06677320 C 
atom_frac            0.90545300           0.94407500           0.99989300 C 
atom_frac            0.92927800           0.90950700           0.01678410 C 
atom_frac            0.92927800           0.90950700           0.04988260 C 
atom_frac            0.90545300           0.94407500           0.06677320 C 
atom_frac            0.98022900           0.90950700           0.99988300 C 
atom_frac            0.03862200           0.94407500           0.01677320 C 
atom_frac            0.03862200           0.94407500           0.04989350 C 
atom_frac            0.98022900           0.90950700           0.06678410 C 
atom_frac            0.08232610           0.00000000           0.09987920 C 
atom_frac            0.09454650           0.05592450           0.11677300 C 
atom_frac            0.09454660           0.05592450           0.14989400 C 
atom_frac            0.08232610           0.00000002           0.16678700 C 
atom_frac            0.07072190           0.09049270           0.09988260 C 
atom_frac            0.01977080           0.09049270           0.11678400 C 
atom_frac            0.01977080           0.09049260           0.14988300 C 
atom_frac            0.07072190           0.09049270           0.16678400 C 
atom_frac            0.96137800           0.05592450           0.09989350 C 
atom_frac            0.91767400           0.00000003           0.11678700 C 
atom_frac            0.91767400           0.00000001           0.14987900 C 
atom_frac            0.96137800           0.05592450           0.16677300 C 
atom_frac            0.90545300           0.94407500           0.09989350 C 
atom_frac            0.92927800           0.90950700           0.11678400 C 
atom_frac            0.92927800           0.90950700           0.14988300 C 
atom_frac            0.90545300           0.94407500           0.16677300 C 
atom_frac            0.98022900           0.90950700           0.09988260 C 
atom_frac            0.03862200           0.94407500           0.11677300 C 
atom_frac            0.03862200           0.94407500           0.14989400 C 
atom_frac            0.98022900           0.90950700           0.16678400 C 
atom_frac            0.08232610           0.00000000           0.19987900 C 
atom_frac            0.09454650           0.05592450           0.21677300 C 
atom_frac            0.09454660           0.05592450           0.24989400 C 
atom_frac            0.08232610           0.00000002           0.26678700 C 
atom_frac            0.07072190           0.09049270           0.19988300 C 
atom_frac            0.01977080           0.09049270           0.21678400 C 
atom_frac            0.01977080           0.09049260           0.24988300 C 
atom_frac            0.07072190           0.09049270           0.26678400 C 
atom_frac            0.96137800           0.05592450           0.19989300 C 
atom_frac            0.91767400           0.00000003           0.21678700 C 
atom_frac            0.91767400           0.00000001           0.24987900 C 
atom_frac            0.96137800           0.05592450           0.26677300 C 
atom_frac            0.90545300           0.94407500           0.19989300 C 
atom_frac            0.92927800           0.90950700           0.21678400 C 
atom_frac            0.92927800           0.90950700           0.24988300 C 
atom_frac            0.90545300           0.94407500           0.26677300 C 
atom_frac            0.98022900           0.90950700           0.19988300 C 
atom_frac            0.03862200           0.94407500           0.21677300 C 
atom_frac            0.03862200           0.94407500           0.24989400 C 
atom_frac            0.98022900           0.90950700           0.26678400 C 
atom_frac            0.08232610           0.00000000           0.29987900 C 
atom_frac            0.09454650           0.05592450           0.31677300 C 
atom_frac            0.09454660           0.05592450           0.34989400 C 
atom_frac            0.08232610           0.00000002           0.36678700 C 
atom_frac            0.07072190           0.09049270           0.29988300 C 
atom_frac            0.01977080           0.09049270           0.31678400 C 
atom_frac            0.01977080           0.09049260           0.34988300 C 
atom_frac            0.07072190           0.09049270           0.36678400 C 
atom_frac            0.96137800           0.05592450           0.29989300 C 
atom_frac            0.91767400           0.00000003           0.31678700 C 
atom_frac            0.91767400           0.00000001           0.34987900 C 
atom_frac            0.96137800           0.05592450           0.36677300 C 
atom_frac            0.90545300           0.94407500           0.29989300 C 
atom_frac            0.92927800           0.90950700           0.31678400 C 
atom_frac            0.92927800           0.90950700           0.34988300 C 
atom_frac            0.90545300           0.94407500           0.36677300 C 
atom_frac            0.98022900           0.90950700           0.29988300 C 
atom_frac            0.03862200           0.94407500           0.31677300 C 
atom_frac            0.03862200           0.94407500           0.34989400 C 
atom_frac            0.98022900           0.90950700           0.36678400 C 
atom_frac            0.08232610           0.00000000           0.39987900 C 
atom_frac            0.09454650           0.05592450           0.41677300 C 
atom_frac            0.09454660           0.05592450           0.44989400 C 
atom_frac            0.08232610           0.00000002           0.46678700 C 
atom_frac            0.07072190           0.09049270           0.39988300 C 
atom_frac            0.01977080           0.09049270           0.41678400 C 
atom_frac            0.01977080           0.09049260           0.44988300 C 
atom_frac            0.07072190           0.09049270           0.46678400 C 
atom_frac            0.96137800           0.05592450           0.39989300 C 
atom_frac            0.91767400           0.00000003           0.41678700 C 
atom_frac            0.91767400           0.00000001           0.44987900 C 
atom_frac            0.96137800           0.05592450           0.46677300 C 
atom_frac            0.90545300           0.94407500           0.39989300 C 
atom_frac            0.92927800           0.90950700           0.41678400 C 
atom_frac            0.92927800           0.90950700           0.44988300 C 
atom_frac            0.90545300           0.94407500           0.46677300 C 
atom_frac            0.98022900           0.90950700           0.39988300 C 
atom_frac            0.03862200           0.94407500           0.41677300 C 
atom_frac            0.03862200           0.94407500           0.44989400 C 
atom_frac            0.98022900           0.90950700           0.46678400 C 
atom_frac            0.08232610           0.00000000           0.49987900 C 
atom_frac            0.09454650           0.05592450           0.51677300 C 
atom_frac            0.09454660           0.05592450           0.54989400 C 
atom_frac            0.08232610           0.00000002           0.56678700 C 
atom_frac            0.07072190           0.09049270           0.49988300 C 
atom_frac            0.01977080           0.09049270           0.51678400 C 
atom_frac            0.01977080           0.09049260           0.54988300 C 
atom_frac            0.07072190           0.09049270           0.56678400 C 
atom_frac            0.96137800           0.05592450           0.49989300 C 
atom_frac            0.91767400           0.00000003           0.51678700 C 
atom_frac            0.91767400           0.00000001           0.54987900 C 
atom_frac            0.96137800           0.05592450           0.56677300 C 
atom_frac            0.90545300           0.94407500           0.49989300 C 
atom_frac            0.92927800           0.90950700           0.51678400 C 
atom_frac            0.92927800           0.90950700           0.54988300 C 
atom_frac            0.90545300           0.94407500           0.56677300 C 
atom_frac            0.98022900           0.90950700           0.49988300 C 
atom_frac            0.03862200           0.94407500           0.51677300 C 
atom_frac            0.03862200           0.94407500           0.54989400 C 
atom_frac            0.98022900           0.90950700           0.56678400 C 
atom_frac            0.08232610           0.00000000           0.59987900 C 
atom_frac            0.09454650           0.05592450           0.61677300 C 
atom_frac            0.09454660           0.05592450           0.64989400 C 
atom_frac            0.08232610           0.00000002           0.66678700 C 
atom_frac            0.07072190           0.09049270           0.59988300 C 
atom_frac            0.01977080           0.09049270           0.61678400 C 
atom_frac            0.01977080           0.09049260           0.64988300 C 
atom_frac            0.07072190           0.09049270           0.66678400 C 
atom_frac            0.96137800           0.05592450           0.59989300 C 
atom_frac            0.91767400           0.00000003           0.61678700 C 
atom_frac            0.91767400           0.00000001           0.64987900 C 
atom_frac            0.96137800           0.05592450           0.66677300 C 
atom_frac            0.90545300           0.94407500           0.59989300 C 
atom_frac            0.92927800           0.90950700           0.61678400 C 
atom_frac            0.92927800           0.90950700           0.64988300 C 
atom_frac            0.90545300           0.94407500           0.66677300 C 
atom_frac            0.98022900           0.90950700           0.59988300 C 
atom_frac            0.03862200           0.94407500           0.61677300 C 
atom_frac            0.03862200           0.94407500           0.64989400 C 
atom_frac            0.98022900           0.90950700           0.66678400 C 
atom_frac            0.08232610           0.00000000           0.69987900 C 
atom_frac            0.09454650           0.05592450           0.71677300 C 
atom_frac            0.09454660           0.05592450           0.74989400 C 
atom_frac            0.08232610           0.00000002           0.76678700 C 
atom_frac            0.07072190           0.09049270           0.69988300 C 
atom_frac            0.01977080           0.09049270           0.71678400 C 
atom_frac            0.01977080           0.09049260           0.74988300 C 
atom_frac            0.07072190           0.09049270           0.76678400 C 
atom_frac            0.96137800           0.05592450           0.69989300 C 
atom_frac            0.91767400           0.00000003           0.71678700 C 
atom_frac            0.91767400           0.00000001           0.74987900 C 
atom_frac            0.96137800           0.05592450           0.76677300 C 
atom_frac            0.90545300           0.94407500           0.69989300 C 
atom_frac            0.92927800           0.90950700           0.71678400 C 
atom_frac            0.92927800           0.90950700           0.74988300 C 
atom_frac            0.90545300           0.94407500           0.76677300 C 
atom_frac            0.98022900           0.90950700           0.69988300 C 
atom_frac            0.03862200           0.94407500           0.71677300 C 
atom_frac            0.03862200           0.94407500           0.74989400 C 
atom_frac            0.98022900           0.90950700           0.76678400 C 
atom_frac            0.08232610           0.00000000           0.79987900 C 
atom_frac            0.09454650           0.05592450           0.81677300 C 
atom_frac            0.09454660           0.05592450           0.84989300 C 
atom_frac            0.08232610           0.00000002           0.86678700 C 
atom_frac            0.07072190           0.09049270           0.79988300 C 
atom_frac            0.01977080           0.09049270           0.81678400 C 
atom_frac            0.01977080           0.09049260           0.84988300 C 
atom_frac            0.07072190           0.09049270           0.86678400 C 
atom_frac            0.96137800           0.05592450           0.79989300 C 
atom_frac            0.91767400           0.00000003           0.81678700 C 
atom_frac            0.91767400           0.00000001           0.84987900 C 
atom_frac            0.96137800           0.05592450           0.86677300 C 
atom_frac            0.90545300           0.94407500           0.79989300 C 
atom_frac            0.92927800           0.90950700           0.81678400 C 
atom_frac            0.92927800           0.90950700           0.84988300 C 
atom_frac            0.90545300           0.94407500           0.86677300 C 
atom_frac            0.98022900           0.90950700           0.79988300 C 
atom_frac            0.03862200           0.94407500           0.81677300 C 
atom_frac            0.03862200           0.94407500           0.84989300 C 
atom_frac            0.98022900           0.90950700           0.86678400 C 
atom_frac            0.08232610           0.00000000           0.89987900 C 
atom_frac            0.09454650           0.05592450           0.91677300 C 
atom_frac            0.09454660           0.05592450           0.94989300 C 
atom_frac            0.08232610           0.00000002           0.96678700 C 
atom_frac            0.07072190           0.09049270           0.89988300 C 
atom_frac            0.01977080           0.09049270           0.91678400 C 
atom_frac            0.01977080           0.09049260           0.94988300 C 
atom_frac            0.07072190           0.09049270           0.96678400 C 
atom_frac            0.96137800           0.05592450           0.89989300 C 
atom_frac            0.91767400           0.00000003           0.91678700 C 
atom_frac            0.91767400           0.00000001           0.94987900 C 
atom_frac            0.96137800           0.05592450           0.96677300 C 
atom_frac            0.90545300           0.94407500           0.89989300 C 
atom_frac            0.92927800           0.90950700           0.91678400 C 
atom_frac            0.92927800           0.90950700           0.94988300 C 
atom_frac            0.90545300           0.94407500           0.96677300 C 
atom_frac            0.98022900           0.90950700           0.89988300 C 
atom_frac            0.03862200           0.94407500           0.91677300 C 
atom_frac            0.03862200           0.94407500           0.94989300 C 
atom_frac            0.98022900           0.90950700           0.96678400 C 
