lattice_vector           25.00000000           0.00000000           0.00000000
lattice_vector          -12.50000000          21.65000000           0.00000000
lattice_vector            0.00000000           0.00000000         681.60000000

atom_frac            0.08232610           0.00000000           0.06249244 C 
atom_frac            0.09454650           0.05592450           0.00104832 C 
atom_frac            0.09454660           0.05592450           0.00311834 C 
atom_frac            0.08232610           0.00000002           0.00417421 C 
atom_frac            0.07072190           0.09049270           0.06249269 C 
atom_frac            0.01977080           0.09049270           0.00104901 C 
atom_frac            0.01977080           0.09049260           0.00311766 C 
atom_frac            0.07072190           0.09049270           0.00417401 C 
atom_frac            0.96137800           0.05592450           0.06249331 C 
atom_frac            0.91767400           0.00000003           0.00104921 C 
atom_frac            0.91767400           0.00000001           0.00311745 C 
atom_frac            0.96137800           0.05592450           0.00417333 C 
atom_frac            0.90545300           0.94407500           0.06249331 C 
atom_frac            0.92927800           0.90950700           0.00104901 C 
atom_frac            0.92927800           0.90950700           0.00311766 C 
atom_frac            0.90545300           0.94407500           0.00417333 C 
atom_frac            0.98022900           0.90950700           0.06249269 C 
atom_frac            0.03862200           0.94407500           0.00104832 C 
atom_frac            0.03862200           0.94407500           0.00311834 C 
atom_frac            0.98022900           0.90950700           0.00417401 C 
atom_frac            0.08232610           0.00000000           0.00624245 C 
atom_frac            0.09454650           0.05592450           0.00729831 C 
atom_frac            0.09454660           0.05592450           0.00936837 C 
atom_frac            0.08232610           0.00000002           0.01042419 C 
atom_frac            0.07072190           0.09049270           0.00624266 C 
atom_frac            0.01977080           0.09049270           0.00729900 C 
atom_frac            0.01977080           0.09049260           0.00936769 C 
atom_frac            0.07072190           0.09049270           0.01042400 C 
atom_frac            0.96137800           0.05592450           0.00624334 C 
atom_frac            0.91767400           0.00000003           0.00729919 C 
atom_frac            0.91767400           0.00000001           0.00936744 C 
atom_frac            0.96137800           0.05592450           0.01042331 C 
atom_frac            0.90545300           0.94407500           0.00624334 C 
atom_frac            0.92927800           0.90950700           0.00729900 C 
atom_frac            0.92927800           0.90950700           0.00936769 C 
atom_frac            0.90545300           0.94407500           0.01042331 C 
atom_frac            0.98022900           0.90950700           0.00624266 C 
atom_frac            0.03862200           0.94407500           0.00729831 C 
atom_frac            0.03862200           0.94407500           0.00936837 C 
atom_frac            0.98022900           0.90950700           0.01042400 C 
atom_frac            0.08232610           0.00000000           0.01249244 C 
atom_frac            0.09454650           0.05592450           0.01354831 C 
atom_frac            0.09454660           0.05592450           0.01561838 C 
atom_frac            0.08232610           0.00000002           0.01667419 C 
atom_frac            0.07072190           0.09049270           0.01249269 C 
atom_frac            0.01977080           0.09049270           0.01354900 C 
atom_frac            0.01977080           0.09049260           0.01561769 C 
atom_frac            0.07072190           0.09049270           0.01667400 C 
atom_frac            0.96137800           0.05592450           0.01249331 C 
atom_frac            0.91767400           0.00000003           0.01354919 C 
atom_frac            0.91767400           0.00000001           0.01561744 C 
atom_frac            0.96137800           0.05592450           0.01667331 C 
atom_frac            0.90545300           0.94407500           0.01249331 C 
atom_frac            0.92927800           0.90950700           0.01354900 C 
atom_frac            0.92927800           0.90950700           0.01561769 C 
atom_frac            0.90545300           0.94407500           0.01667331 C 
atom_frac            0.98022900           0.90950700           0.01249269 C 
atom_frac            0.03862200           0.94407500           0.01354831 C 
atom_frac            0.03862200           0.94407500           0.01561838 C 
atom_frac            0.98022900           0.90950700           0.01667400 C 
atom_frac            0.08232610           0.00000000           0.01874244 C 
atom_frac            0.09454650           0.05592450           0.01979831 C 
atom_frac            0.09454660           0.05592450           0.02186837 C 
atom_frac            0.08232610           0.00000002           0.02292419 C 
atom_frac            0.07072190           0.09049270           0.01874269 C 
atom_frac            0.01977080           0.09049270           0.01979900 C 
atom_frac            0.01977080           0.09049260           0.02186769 C 
atom_frac            0.07072190           0.09049270           0.02292400 C 
atom_frac            0.96137800           0.05592450           0.01874331 C 
atom_frac            0.91767400           0.00000003           0.01979919 C 
atom_frac            0.91767400           0.00000001           0.02186744 C 
atom_frac            0.96137800           0.05592450           0.02292331 C 
atom_frac            0.90545300           0.94407500           0.01874331 C 
atom_frac            0.92927800           0.90950700           0.01979900 C 
atom_frac            0.92927800           0.90950700           0.02186769 C 
atom_frac            0.90545300           0.94407500           0.02292331 C 
atom_frac            0.98022900           0.90950700           0.01874269 C 
atom_frac            0.03862200           0.94407500           0.01979831 C 
atom_frac            0.03862200           0.94407500           0.02186837 C 
atom_frac            0.98022900           0.90950700           0.02292400 C 
atom_frac            0.08232610           0.00000000           0.02499244 C 
atom_frac            0.09454650           0.05592450           0.02604831 C 
atom_frac            0.09454660           0.05592450           0.02811838 C 
atom_frac            0.08232610           0.00000002           0.02917419 C 
atom_frac            0.07072190           0.09049270           0.02499269 C 
atom_frac            0.01977080           0.09049270           0.02604900 C 
atom_frac            0.01977080           0.09049260           0.02811769 C 
atom_frac            0.07072190           0.09049270           0.02917400 C 
atom_frac            0.96137800           0.05592450           0.02499331 C 
atom_frac            0.91767400           0.00000003           0.02604919 C 
atom_frac            0.91767400           0.00000001           0.02811744 C 
atom_frac            0.96137800           0.05592450           0.02917331 C 
atom_frac            0.90545300           0.94407500           0.02499331 C 
atom_frac            0.92927800           0.90950700           0.02604900 C 
atom_frac            0.92927800           0.90950700           0.02811769 C 
atom_frac            0.90545300           0.94407500           0.02917331 C 
atom_frac            0.98022900           0.90950700           0.02499269 C 
atom_frac            0.03862200           0.94407500           0.02604831 C 
atom_frac            0.03862200           0.94407500           0.02811838 C 
atom_frac            0.98022900           0.90950700           0.02917400 C 
atom_frac            0.08232610           0.00000000           0.03124244 C 
atom_frac            0.09454650           0.05592450           0.03229831 C 
atom_frac            0.09454660           0.05592450           0.03436837 C 
atom_frac            0.08232610           0.00000002           0.03542419 C 
atom_frac            0.07072190           0.09049270           0.03124269 C 
atom_frac            0.01977080           0.09049270           0.03229900 C 
atom_frac            0.01977080           0.09049260           0.03436769 C 
atom_frac            0.07072190           0.09049270           0.03542400 C 
atom_frac            0.96137800           0.05592450           0.03124331 C 
atom_frac            0.91767400           0.00000003           0.03229919 C 
atom_frac            0.91767400           0.00000001           0.03436744 C 
atom_frac            0.96137800           0.05592450           0.03542331 C 
atom_frac            0.90545300           0.94407500           0.03124331 C 
atom_frac            0.92927800           0.90950700           0.03229900 C 
atom_frac            0.92927800           0.90950700           0.03436769 C 
atom_frac            0.90545300           0.94407500           0.03542331 C 
atom_frac            0.98022900           0.90950700           0.03124269 C 
atom_frac            0.03862200           0.94407500           0.03229831 C 
atom_frac            0.03862200           0.94407500           0.03436837 C 
atom_frac            0.98022900           0.90950700           0.03542400 C 
atom_frac            0.08232610           0.00000000           0.03749244 C 
atom_frac            0.09454650           0.05592450           0.03854831 C 
atom_frac            0.09454660           0.05592450           0.04061837 C 
atom_frac            0.08232610           0.00000002           0.04167419 C 
atom_frac            0.07072190           0.09049270           0.03749269 C 
atom_frac            0.01977080           0.09049270           0.03854900 C 
atom_frac            0.01977080           0.09049260           0.04061769 C 
atom_frac            0.07072190           0.09049270           0.04167400 C 
atom_frac            0.96137800           0.05592450           0.03749331 C 
atom_frac            0.91767400           0.00000003           0.03854919 C 
atom_frac            0.91767400           0.00000001           0.04061744 C 
atom_frac            0.96137800           0.05592450           0.04167331 C 
atom_frac            0.90545300           0.94407500           0.03749331 C 
atom_frac            0.92927800           0.90950700           0.03854900 C 
atom_frac            0.92927800           0.90950700           0.04061769 C 
atom_frac            0.90545300           0.94407500           0.04167331 C 
atom_frac            0.98022900           0.90950700           0.03749269 C 
atom_frac            0.03862200           0.94407500           0.03854831 C 
atom_frac            0.03862200           0.94407500           0.04061837 C 
atom_frac            0.98022900           0.90950700           0.04167400 C 
atom_frac            0.08232610           0.00000000           0.04374244 C 
atom_frac            0.09454650           0.05592450           0.04479831 C 
atom_frac            0.09454660           0.05592450           0.04686837 C 
atom_frac            0.08232610           0.00000002           0.04792419 C 
atom_frac            0.07072190           0.09049270           0.04374269 C 
atom_frac            0.01977080           0.09049270           0.04479900 C 
atom_frac            0.01977080           0.09049260           0.04686769 C 
atom_frac            0.07072190           0.09049270           0.04792400 C 
atom_frac            0.96137800           0.05592450           0.04374331 C 
atom_frac            0.91767400           0.00000003           0.04479919 C 
atom_frac            0.91767400           0.00000001           0.04686744 C 
atom_frac            0.96137800           0.05592450           0.04792331 C 
atom_frac            0.90545300           0.94407500           0.04374331 C 
atom_frac            0.92927800           0.90950700           0.04479900 C 
atom_frac            0.92927800           0.90950700           0.04686769 C 
atom_frac            0.90545300           0.94407500           0.04792331 C 
atom_frac            0.98022900           0.90950700           0.04374269 C 
atom_frac            0.03862200           0.94407500           0.04479831 C 
atom_frac            0.03862200           0.94407500           0.04686837 C 
atom_frac            0.98022900           0.90950700           0.04792400 C 
atom_frac            0.08232610           0.00000000           0.04999244 C 
atom_frac            0.09454650           0.05592450           0.05104831 C 
atom_frac            0.09454660           0.05592450           0.05311831 C 
atom_frac            0.08232610           0.00000002           0.05417419 C 
atom_frac            0.07072190           0.09049270           0.04999269 C 
atom_frac            0.01977080           0.09049270           0.05104900 C 
atom_frac            0.01977080           0.09049260           0.05311769 C 
atom_frac            0.07072190           0.09049270           0.05417400 C 
atom_frac            0.96137800           0.05592450           0.04999331 C 
atom_frac            0.91767400           0.00000003           0.05104919 C 
atom_frac            0.91767400           0.00000001           0.05311744 C 
atom_frac            0.96137800           0.05592450           0.05417331 C 
atom_frac            0.90545300           0.94407500           0.04999331 C 
atom_frac            0.92927800           0.90950700           0.05104900 C 
atom_frac            0.92927800           0.90950700           0.05311769 C 
atom_frac            0.90545300           0.94407500           0.05417331 C 
atom_frac            0.98022900           0.90950700           0.04999269 C 
atom_frac            0.03862200           0.94407500           0.05104831 C 
atom_frac            0.03862200           0.94407500           0.05311831 C 
atom_frac            0.98022900           0.90950700           0.05417400 C 
atom_frac            0.08232610           0.00000000           0.05624244 C 
atom_frac            0.09454650           0.05592450           0.05729831 C 
atom_frac            0.09454660           0.05592450           0.05936831 C 
atom_frac            0.08232610           0.00000002           0.06042419 C 
atom_frac            0.07072190           0.09049270           0.05624269 C 
atom_frac            0.01977080           0.09049270           0.05729900 C 
atom_frac            0.01977080           0.09049260           0.05936769 C 
atom_frac            0.07072190           0.09049270           0.06042400 C 
atom_frac            0.96137800           0.05592450           0.05624331 C 
atom_frac            0.91767400           0.00000003           0.05729919 C 
atom_frac            0.91767400           0.00000001           0.05936744 C 
atom_frac            0.96137800           0.05592450           0.06042331 C 
atom_frac            0.90545300           0.94407500           0.05624331 C 
atom_frac            0.92927800           0.90950700           0.05729900 C 
atom_frac            0.92927800           0.90950700           0.05936769 C 
atom_frac            0.90545300           0.94407500           0.06042331 C 
atom_frac            0.98022900           0.90950700           0.05624269 C 
atom_frac            0.03862200           0.94407500           0.05729831 C 
atom_frac            0.03862200           0.94407500           0.05936831 C 
atom_frac            0.98022900           0.90950700           0.06042400 C 
atom_frac            0.08232610           0.00000000           0.12499244 C 
atom_frac            0.09454650           0.05592450           0.06354833 C 
atom_frac            0.09454660           0.05592450           0.06561834 C 
atom_frac            0.08232610           0.00000002           0.06667421 C 
atom_frac            0.07072190           0.09049270           0.12499269 C 
atom_frac            0.01977080           0.09049270           0.06354901 C 
atom_frac            0.01977080           0.09049260           0.06561766 C 
atom_frac            0.07072190           0.09049270           0.06667401 C 
atom_frac            0.96137800           0.05592450           0.12499331 C 
atom_frac            0.91767400           0.00000003           0.06354921 C 
atom_frac            0.91767400           0.00000001           0.06561745 C 
atom_frac            0.96137800           0.05592450           0.06667333 C 
atom_frac            0.90545300           0.94407500           0.12499331 C 
atom_frac            0.92927800           0.90950700           0.06354901 C 
atom_frac            0.92927800           0.90950700           0.06561766 C 
atom_frac            0.90545300           0.94407500           0.06667333 C 
atom_frac            0.98022900           0.90950700           0.12499269 C 
atom_frac            0.03862200           0.94407500           0.06354833 C 
atom_frac            0.03862200           0.94407500           0.06561834 C 
atom_frac            0.98022900           0.90950700           0.06667401 C 
atom_frac            0.08232610           0.00000000           0.06874245 C 
atom_frac            0.09454650           0.05592450           0.06979831 C 
atom_frac            0.09454660           0.05592450           0.07186837 C 
atom_frac            0.08232610           0.00000002           0.07292419 C 
atom_frac            0.07072190           0.09049270           0.06874266 C 
atom_frac            0.01977080           0.09049270           0.06979900 C 
atom_frac            0.01977080           0.09049260           0.07186769 C 
atom_frac            0.07072190           0.09049270           0.07292400 C 
atom_frac            0.96137800           0.05592450           0.06874334 C 
atom_frac            0.91767400           0.00000003           0.06979919 C 
atom_frac            0.91767400           0.00000001           0.07186744 C 
atom_frac            0.96137800           0.05592450           0.07292331 C 
atom_frac            0.90545300           0.94407500           0.06874334 C 
atom_frac            0.92927800           0.90950700           0.06979900 C 
atom_frac            0.92927800           0.90950700           0.07186769 C 
atom_frac            0.90545300           0.94407500           0.07292331 C 
atom_frac            0.98022900           0.90950700           0.06874266 C 
atom_frac            0.03862200           0.94407500           0.06979831 C 
atom_frac            0.03862200           0.94407500           0.07186837 C 
atom_frac            0.98022900           0.90950700           0.07292400 C 
atom_frac            0.08232610           0.00000000           0.07499244 C 
atom_frac            0.09454650           0.05592450           0.07604831 C 
atom_frac            0.09454660           0.05592450           0.07811838 C 
atom_frac            0.08232610           0.00000002           0.07917419 C 
atom_frac            0.07072190           0.09049270           0.07499269 C 
atom_frac            0.01977080           0.09049270           0.07604900 C 
atom_frac            0.01977080           0.09049260           0.07811769 C 
atom_frac            0.07072190           0.09049270           0.07917400 C 
atom_frac            0.96137800           0.05592450           0.07499331 C 
atom_frac            0.91767400           0.00000003           0.07604919 C 
atom_frac            0.91767400           0.00000001           0.07811744 C 
atom_frac            0.96137800           0.05592450           0.07917331 C 
atom_frac            0.90545300           0.94407500           0.07499331 C 
atom_frac            0.92927800           0.90950700           0.07604900 C 
atom_frac            0.92927800           0.90950700           0.07811769 C 
atom_frac            0.90545300           0.94407500           0.07917331 C 
atom_frac            0.98022900           0.90950700           0.07499269 C 
atom_frac            0.03862200           0.94407500           0.07604831 C 
atom_frac            0.03862200           0.94407500           0.07811838 C 
atom_frac            0.98022900           0.90950700           0.07917400 C 
atom_frac            0.08232610           0.00000000           0.08124244 C 
atom_frac            0.09454650           0.05592450           0.08229831 C 
atom_frac            0.09454660           0.05592450           0.08436837 C 
atom_frac            0.08232610           0.00000002           0.08542419 C 
atom_frac            0.07072190           0.09049270           0.08124269 C 
atom_frac            0.01977080           0.09049270           0.08229900 C 
atom_frac            0.01977080           0.09049260           0.08436769 C 
atom_frac            0.07072190           0.09049270           0.08542400 C 
atom_frac            0.96137800           0.05592450           0.08124331 C 
atom_frac            0.91767400           0.00000003           0.08229919 C 
atom_frac            0.91767400           0.00000001           0.08436744 C 
atom_frac            0.96137800           0.05592450           0.08542331 C 
atom_frac            0.90545300           0.94407500           0.08124331 C 
atom_frac            0.92927800           0.90950700           0.08229900 C 
atom_frac            0.92927800           0.90950700           0.08436769 C 
atom_frac            0.90545300           0.94407500           0.08542331 C 
atom_frac            0.98022900           0.90950700           0.08124269 C 
atom_frac            0.03862200           0.94407500           0.08229831 C 
atom_frac            0.03862200           0.94407500           0.08436837 C 
atom_frac            0.98022900           0.90950700           0.08542400 C 
atom_frac            0.08232610           0.00000000           0.08749244 C 
atom_frac            0.09454650           0.05592450           0.08854831 C 
atom_frac            0.09454660           0.05592450           0.09061838 C 
atom_frac            0.08232610           0.00000002           0.09167419 C 
atom_frac            0.07072190           0.09049270           0.08749269 C 
atom_frac            0.01977080           0.09049270           0.08854900 C 
atom_frac            0.01977080           0.09049260           0.09061769 C 
atom_frac            0.07072190           0.09049270           0.09167400 C 
atom_frac            0.96137800           0.05592450           0.08749331 C 
atom_frac            0.91767400           0.00000003           0.08854919 C 
atom_frac            0.91767400           0.00000001           0.09061744 C 
atom_frac            0.96137800           0.05592450           0.09167331 C 
atom_frac            0.90545300           0.94407500           0.08749331 C 
atom_frac            0.92927800           0.90950700           0.08854900 C 
atom_frac            0.92927800           0.90950700           0.09061769 C 
atom_frac            0.90545300           0.94407500           0.09167331 C 
atom_frac            0.98022900           0.90950700           0.08749269 C 
atom_frac            0.03862200           0.94407500           0.08854831 C 
atom_frac            0.03862200           0.94407500           0.09061838 C 
atom_frac            0.98022900           0.90950700           0.09167400 C 
atom_frac            0.08232610           0.00000000           0.09374244 C 
atom_frac            0.09454650           0.05592450           0.09479831 C 
atom_frac            0.09454660           0.05592450           0.09686838 C 
atom_frac            0.08232610           0.00000002           0.09792419 C 
atom_frac            0.07072190           0.09049270           0.09374269 C 
atom_frac            0.01977080           0.09049270           0.09479900 C 
atom_frac            0.01977080           0.09049260           0.09686769 C 
atom_frac            0.07072190           0.09049270           0.09792400 C 
atom_frac            0.96137800           0.05592450           0.09374331 C 
atom_frac            0.91767400           0.00000003           0.09479919 C 
atom_frac            0.91767400           0.00000001           0.09686744 C 
atom_frac            0.96137800           0.05592450           0.09792331 C 
atom_frac            0.90545300           0.94407500           0.09374331 C 
atom_frac            0.92927800           0.90950700           0.09479900 C 
atom_frac            0.92927800           0.90950700           0.09686769 C 
atom_frac            0.90545300           0.94407500           0.09792331 C 
atom_frac            0.98022900           0.90950700           0.09374269 C 
atom_frac            0.03862200           0.94407500           0.09479831 C 
atom_frac            0.03862200           0.94407500           0.09686838 C 
atom_frac            0.98022900           0.90950700           0.09792400 C 
atom_frac            0.08232610           0.00000000           0.09999244 C 
atom_frac            0.09454650           0.05592450           0.10104831 C 
atom_frac            0.09454660           0.05592450           0.10311837 C 
atom_frac            0.08232610           0.00000002           0.10417419 C 
atom_frac            0.07072190           0.09049270           0.09999269 C 
atom_frac            0.01977080           0.09049270           0.10104900 C 
atom_frac            0.01977080           0.09049260           0.10311769 C 
atom_frac            0.07072190           0.09049270           0.10417400 C 
atom_frac            0.96137800           0.05592450           0.09999331 C 
atom_frac            0.91767400           0.00000003           0.10104919 C 
atom_frac            0.91767400           0.00000001           0.10311744 C 
atom_frac            0.96137800           0.05592450           0.10417331 C 
atom_frac            0.90545300           0.94407500           0.09999331 C 
atom_frac            0.92927800           0.90950700           0.10104900 C 
atom_frac            0.92927800           0.90950700           0.10311769 C 
atom_frac            0.90545300           0.94407500           0.10417331 C 
atom_frac            0.98022900           0.90950700           0.09999269 C 
atom_frac            0.03862200           0.94407500           0.10104831 C 
atom_frac            0.03862200           0.94407500           0.10311837 C 
atom_frac            0.98022900           0.90950700           0.10417400 C 
atom_frac            0.08232610           0.00000000           0.10624244 C 
atom_frac            0.09454650           0.05592450           0.10729831 C 
atom_frac            0.09454660           0.05592450           0.10936837 C 
atom_frac            0.08232610           0.00000002           0.11042419 C 
atom_frac            0.07072190           0.09049270           0.10624269 C 
atom_frac            0.01977080           0.09049270           0.10729900 C 
atom_frac            0.01977080           0.09049260           0.10936769 C 
atom_frac            0.07072190           0.09049270           0.11042400 C 
atom_frac            0.96137800           0.05592450           0.10624331 C 
atom_frac            0.91767400           0.00000003           0.10729919 C 
atom_frac            0.91767400           0.00000001           0.10936744 C 
atom_frac            0.96137800           0.05592450           0.11042331 C 
atom_frac            0.90545300           0.94407500           0.10624331 C 
atom_frac            0.92927800           0.90950700           0.10729900 C 
atom_frac            0.92927800           0.90950700           0.10936769 C 
atom_frac            0.90545300           0.94407500           0.11042331 C 
atom_frac            0.98022900           0.90950700           0.10624269 C 
atom_frac            0.03862200           0.94407500           0.10729831 C 
atom_frac            0.03862200           0.94407500           0.10936837 C 
atom_frac            0.98022900           0.90950700           0.11042400 C 
atom_frac            0.08232610           0.00000000           0.11249244 C 
atom_frac            0.09454650           0.05592450           0.11354831 C 
atom_frac            0.09454660           0.05592450           0.11561831 C 
atom_frac            0.08232610           0.00000002           0.11667419 C 
atom_frac            0.07072190           0.09049270           0.11249269 C 
atom_frac            0.01977080           0.09049270           0.11354900 C 
atom_frac            0.01977080           0.09049260           0.11561769 C 
atom_frac            0.07072190           0.09049270           0.11667400 C 
atom_frac            0.96137800           0.05592450           0.11249331 C 
atom_frac            0.91767400           0.00000003           0.11354919 C 
atom_frac            0.91767400           0.00000001           0.11561744 C 
atom_frac            0.96137800           0.05592450           0.11667331 C 
atom_frac            0.90545300           0.94407500           0.11249331 C 
atom_frac            0.92927800           0.90950700           0.11354900 C 
atom_frac            0.92927800           0.90950700           0.11561769 C 
atom_frac            0.90545300           0.94407500           0.11667331 C 
atom_frac            0.98022900           0.90950700           0.11249269 C 
atom_frac            0.03862200           0.94407500           0.11354831 C 
atom_frac            0.03862200           0.94407500           0.11561831 C 
atom_frac            0.98022900           0.90950700           0.11667400 C 
atom_frac            0.08232610           0.00000000           0.11874244 C 
atom_frac            0.09454650           0.05592450           0.11979831 C 
atom_frac            0.09454660           0.05592450           0.12186831 C 
atom_frac            0.08232610           0.00000002           0.12292419 C 
atom_frac            0.07072190           0.09049270           0.11874269 C 
atom_frac            0.01977080           0.09049270           0.11979900 C 