lattice_vector           25.00000000           0.00000000           0.00000000
lattice_vector          -12.50000000          21.65000000           0.00000000
lattice_vector            0.00000000           0.00000000        2726.40000000

atom_frac            0.08232610           0.00000000           0.01562311 C 
atom_frac            0.09454650           0.05592450           0.00026208 C 
atom_frac            0.09454660           0.05592450           0.00077959 C 
atom_frac            0.08232610           0.00000002           0.00104355 C 
atom_frac            0.07072190           0.09049270           0.01562317 C 
atom_frac            0.01977080           0.09049270           0.00026225 C 
atom_frac            0.01977080           0.09049260           0.00077942 C 
atom_frac            0.07072190           0.09049270           0.00104350 C 
atom_frac            0.96137800           0.05592450           0.01562333 C 
atom_frac            0.91767400           0.00000003           0.00026230 C 
atom_frac            0.91767400           0.00000001           0.00077936 C 
atom_frac            0.96137800           0.05592450           0.00104333 C 
atom_frac            0.90545300           0.94407500           0.01562333 C 
atom_frac            0.92927800           0.90950700           0.00026225 C 
atom_frac            0.92927800           0.90950700           0.00077942 C 
atom_frac            0.90545300           0.94407500           0.00104333 C 
atom_frac            0.98022900           0.90950700           0.01562317 C 
atom_frac            0.03862200           0.94407500           0.00026208 C 
atom_frac            0.03862200           0.94407500           0.00077959 C 
atom_frac            0.98022900           0.90950700           0.00104350 C 
atom_frac            0.08232610           0.00000000           0.00156061 C 
atom_frac            0.09454650           0.05592450           0.00182458 C 
atom_frac            0.09454660           0.05592450           0.00234209 C 
atom_frac            0.08232610           0.00000002           0.00260605 C 
atom_frac            0.07072190           0.09049270           0.00156067 C 
atom_frac            0.01977080           0.09049270           0.00182475 C 
atom_frac            0.01977080           0.09049260           0.00234192 C 
atom_frac            0.07072190           0.09049270           0.00260600 C 
atom_frac            0.96137800           0.05592450           0.00156084 C 
atom_frac            0.91767400           0.00000003           0.00182480 C 
atom_frac            0.91767400           0.00000001           0.00234186 C 
atom_frac            0.96137800           0.05592450           0.00260583 C 
atom_frac            0.90545300           0.94407500           0.00156084 C 
atom_frac            0.92927800           0.90950700           0.00182475 C 
atom_frac            0.92927800           0.90950700           0.00234192 C 
atom_frac            0.90545300           0.94407500           0.00260583 C 
atom_frac            0.98022900           0.90950700           0.00156067 C 
atom_frac            0.03862200           0.94407500           0.00182458 C 
atom_frac            0.03862200           0.94407500           0.00234209 C 
atom_frac            0.98022900           0.90950700           0.00260600 C 
atom_frac            0.08232610           0.00000000           0.00312311 C 
atom_frac            0.09454650           0.05592450           0.00338708 C 
atom_frac            0.09454660           0.05592450           0.00390459 C 
atom_frac            0.08232610           0.00000002           0.00416855 C 
atom_frac            0.07072190           0.09049270           0.00312317 C 
atom_frac            0.01977080           0.09049270           0.00338725 C 
atom_frac            0.01977080           0.09049260           0.00390442 C 
atom_frac            0.07072190           0.09049270           0.00416850 C 
atom_frac            0.96137800           0.05592450           0.00312333 C 
atom_frac            0.91767400           0.00000003           0.00338730 C 
atom_frac            0.91767400           0.00000001           0.00390436 C 
atom_frac            0.96137800           0.05592450           0.00416833 C 
atom_frac            0.90545300           0.94407500           0.00312333 C 
atom_frac            0.92927800           0.90950700           0.00338725 C 
atom_frac            0.92927800           0.90950700           0.00390442 C 
atom_frac            0.90545300           0.94407500           0.00416833 C 
atom_frac            0.98022900           0.90950700           0.00312317 C 
atom_frac            0.03862200           0.94407500           0.00338708 C 
atom_frac            0.03862200           0.94407500           0.00390459 C 
atom_frac            0.98022900           0.90950700           0.00416850 C 
atom_frac            0.08232610           0.00000000           0.00468561 C 
atom_frac            0.09454650           0.05592450           0.00494958 C 
atom_frac            0.09454660           0.05592450           0.00546709 C 
atom_frac            0.08232610           0.00000002           0.00573105 C 
atom_frac            0.07072190           0.09049270           0.00468567 C 
atom_frac            0.01977080           0.09049270           0.00494975 C 
atom_frac            0.01977080           0.09049260           0.00546692 C 
atom_frac            0.07072190           0.09049270           0.00573100 C 
atom_frac            0.96137800           0.05592450           0.00468583 C 
atom_frac            0.91767400           0.00000003           0.00494980 C 
atom_frac            0.91767400           0.00000001           0.00546686 C 
atom_frac            0.96137800           0.05592450           0.00573083 C 
atom_frac            0.90545300           0.94407500           0.00468583 C 
atom_frac            0.92927800           0.90950700           0.00494975 C 
atom_frac            0.92927800           0.90950700           0.00546692 C 
atom_frac            0.90545300           0.94407500           0.00573083 C 
atom_frac            0.98022900           0.90950700           0.00468567 C 
atom_frac            0.03862200           0.94407500           0.00494958 C 
atom_frac            0.03862200           0.94407500           0.00546709 C 
atom_frac            0.98022900           0.90950700           0.00573100 C 
atom_frac            0.08232610           0.00000000           0.00624811 C 
atom_frac            0.09454650           0.05592450           0.00651208 C 
atom_frac            0.09454660           0.05592450           0.00702959 C 
atom_frac            0.08232610           0.00000002           0.00729355 C 
atom_frac            0.07072190           0.09049270           0.00624817 C 
atom_frac            0.01977080           0.09049270           0.00651225 C 
atom_frac            0.01977080           0.09049260           0.00702942 C 
atom_frac            0.07072190           0.09049270           0.00729350 C 
atom_frac            0.96137800           0.05592450           0.00624833 C 
atom_frac            0.91767400           0.00000003           0.00651230 C 
atom_frac            0.91767400           0.00000001           0.00702936 C 
atom_frac            0.96137800           0.05592450           0.00729333 C 
atom_frac            0.90545300           0.94407500           0.00624833 C 
atom_frac            0.92927800           0.90950700           0.00651225 C 
atom_frac            0.92927800           0.90950700           0.00702942 C 
atom_frac            0.90545300           0.94407500           0.00729333 C 
atom_frac            0.98022900           0.90950700           0.00624817 C 
atom_frac            0.03862200           0.94407500           0.00651208 C 
atom_frac            0.03862200           0.94407500           0.00702959 C 
atom_frac            0.98022900           0.90950700           0.00729350 C 
atom_frac            0.08232610           0.00000000           0.00781061 C 
atom_frac            0.09454650           0.05592450           0.00807458 C 
atom_frac            0.09454660           0.05592450           0.00859209 C 
atom_frac            0.08232610           0.00000002           0.00885605 C 
atom_frac            0.07072190           0.09049270           0.00781067 C 
atom_frac            0.01977080           0.09049270           0.00807475 C 
atom_frac            0.01977080           0.09049260           0.00859192 C 
atom_frac            0.07072190           0.09049270           0.00885600 C 
atom_frac            0.96137800           0.05592450           0.00781083 C 
atom_frac            0.91767400           0.00000003           0.00807480 C 
atom_frac            0.91767400           0.00000001           0.00859186 C 
atom_frac            0.96137800           0.05592450           0.00885583 C 
atom_frac            0.90545300           0.94407500           0.00781083 C 
atom_frac            0.92927800           0.90950700           0.00807475 C 
atom_frac            0.92927800           0.90950700           0.00859192 C 
atom_frac            0.90545300           0.94407500           0.00885583 C 
atom_frac            0.98022900           0.90950700           0.00781067 C 
atom_frac            0.03862200           0.94407500           0.00807458 C 
atom_frac            0.03862200           0.94407500           0.00859209 C 
atom_frac            0.98022900           0.90950700           0.00885600 C 
atom_frac            0.08232610           0.00000000           0.00937311 C 
atom_frac            0.09454650           0.05592450           0.00963708 C 
atom_frac            0.09454660           0.05592450           0.01015459 C 
atom_frac            0.08232610           0.00000002           0.01041855 C 
atom_frac            0.07072190           0.09049270           0.00937317 C 
atom_frac            0.01977080           0.09049270           0.00963725 C 
atom_frac            0.01977080           0.09049260           0.01015442 C 
atom_frac            0.07072190           0.09049270           0.01041850 C 
atom_frac            0.96137800           0.05592450           0.00937333 C 
atom_frac            0.91767400           0.00000003           0.00963730 C 
atom_frac            0.91767400           0.00000001           0.01015436 C 
atom_frac            0.96137800           0.05592450           0.01041833 C 
atom_frac            0.90545300           0.94407500           0.00937333 C 
atom_frac            0.92927800           0.90950700           0.00963725 C 
atom_frac            0.92927800           0.90950700           0.01015442 C 
atom_frac            0.90545300           0.94407500           0.01041833 C 
atom_frac            0.98022900           0.90950700           0.00937317 C 
atom_frac            0.03862200           0.94407500           0.00963708 C 
atom_frac            0.03862200           0.94407500           0.01015459 C 
atom_frac            0.98022900           0.90950700           0.01041850 C 
atom_frac            0.08232610           0.00000000           0.01093561 C 
atom_frac            0.09454650           0.05592450           0.01119958 C 
atom_frac            0.09454660           0.05592450           0.01171709 C 
atom_frac            0.08232610           0.00000002           0.01198105 C 
atom_frac            0.07072190           0.09049270           0.01093567 C 
atom_frac            0.01977080           0.09049270           0.01119975 C 
atom_frac            0.01977080           0.09049260           0.01171692 C 
atom_frac            0.07072190           0.09049270           0.01198100 C 
atom_frac            0.96137800           0.05592450           0.01093583 C 
atom_frac            0.91767400           0.00000003           0.01119980 C 
atom_frac            0.91767400           0.00000001           0.01171686 C 
atom_frac            0.96137800           0.05592450           0.01198083 C 
atom_frac            0.90545300           0.94407500           0.01093583 C 
atom_frac            0.92927800           0.90950700           0.01119975 C 
atom_frac            0.92927800           0.90950700           0.01171692 C 
atom_frac            0.90545300           0.94407500           0.01198083 C 
atom_frac            0.98022900           0.90950700           0.01093567 C 
atom_frac            0.03862200           0.94407500           0.01119958 C 
atom_frac            0.03862200           0.94407500           0.01171709 C 
atom_frac            0.98022900           0.90950700           0.01198100 C 
atom_frac            0.08232610           0.00000000           0.01249811 C 
atom_frac            0.09454650           0.05592450           0.01276208 C 
atom_frac            0.09454660           0.05592450           0.01327958 C 
atom_frac            0.08232610           0.00000002           0.01354355 C 
atom_frac            0.07072190           0.09049270           0.01249817 C 
atom_frac            0.01977080           0.09049270           0.01276225 C 
atom_frac            0.01977080           0.09049260           0.01327942 C 
atom_frac            0.07072190           0.09049270           0.01354350 C 
atom_frac            0.96137800           0.05592450           0.01249833 C 
atom_frac            0.91767400           0.00000003           0.01276230 C 
atom_frac            0.91767400           0.00000001           0.01327936 C 
atom_frac            0.96137800           0.05592450           0.01354333 C 
atom_frac            0.90545300           0.94407500           0.01249833 C 
atom_frac            0.92927800           0.90950700           0.01276225 C 
atom_frac            0.92927800           0.90950700           0.01327942 C 
atom_frac            0.90545300           0.94407500           0.01354333 C 
atom_frac            0.98022900           0.90950700           0.01249817 C 
atom_frac            0.03862200           0.94407500           0.01276208 C 
atom_frac            0.03862200           0.94407500           0.01327958 C 
atom_frac            0.98022900           0.90950700           0.01354350 C 
atom_frac            0.08232610           0.00000000           0.01406061 C 
atom_frac            0.09454650           0.05592450           0.01432458 C 
atom_frac            0.09454660           0.05592450           0.01484208 C 
atom_frac            0.08232610           0.00000002           0.01510605 C 
atom_frac            0.07072190           0.09049270           0.01406067 C 
atom_frac            0.01977080           0.09049270           0.01432475 C 
atom_frac            0.01977080           0.09049260           0.01484192 C 
atom_frac            0.07072190           0.09049270           0.01510600 C 
atom_frac            0.96137800           0.05592450           0.01406083 C 
atom_frac            0.91767400           0.00000003           0.01432480 C 
atom_frac            0.91767400           0.00000001           0.01484186 C 
atom_frac            0.96137800           0.05592450           0.01510583 C 
atom_frac            0.90545300           0.94407500           0.01406083 C 
atom_frac            0.92927800           0.90950700           0.01432475 C 
atom_frac            0.92927800           0.90950700           0.01484192 C 
atom_frac            0.90545300           0.94407500           0.01510583 C 
atom_frac            0.98022900           0.90950700           0.01406067 C 
atom_frac            0.03862200           0.94407500           0.01432458 C 
atom_frac            0.03862200           0.94407500           0.01484208 C 
atom_frac            0.98022900           0.90950700           0.01510600 C 
atom_frac            0.08232610           0.00000000           0.03124811 C 
atom_frac            0.09454650           0.05592450           0.01588708 C 
atom_frac            0.09454660           0.05592450           0.01640459 C 
atom_frac            0.08232610           0.00000002           0.01666855 C 
atom_frac            0.07072190           0.09049270           0.03124817 C 
atom_frac            0.01977080           0.09049270           0.01588725 C 
atom_frac            0.01977080           0.09049260           0.01640442 C 
atom_frac            0.07072190           0.09049270           0.01666850 C 
atom_frac            0.96137800           0.05592450           0.03124833 C 
atom_frac            0.91767400           0.00000003           0.01588730 C 
atom_frac            0.91767400           0.00000001           0.01640436 C 
atom_frac            0.96137800           0.05592450           0.01666833 C 
atom_frac            0.90545300           0.94407500           0.03124833 C 
atom_frac            0.92927800           0.90950700           0.01588725 C 
atom_frac            0.92927800           0.90950700           0.01640442 C 
atom_frac            0.90545300           0.94407500           0.01666833 C 
atom_frac            0.98022900           0.90950700           0.03124817 C 
atom_frac            0.03862200           0.94407500           0.01588708 C 
atom_frac            0.03862200           0.94407500           0.01640459 C 
atom_frac            0.98022900           0.90950700           0.01666850 C 
atom_frac            0.08232610           0.00000000           0.01718561 C 
atom_frac            0.09454650           0.05592450           0.01744958 C 
atom_frac            0.09454660           0.05592450           0.01796709 C 
atom_frac            0.08232610           0.00000002           0.01823105 C 
atom_frac            0.07072190           0.09049270           0.01718567 C 
atom_frac            0.01977080           0.09049270           0.01744975 C 
atom_frac            0.01977080           0.09049260           0.01796692 C 
atom_frac            0.07072190           0.09049270           0.01823100 C 
atom_frac            0.96137800           0.05592450           0.01718584 C 
atom_frac            0.91767400           0.00000003           0.01744980 C 
atom_frac            0.91767400           0.00000001           0.01796686 C 
atom_frac            0.96137800           0.05592450           0.01823083 C 
atom_frac            0.90545300           0.94407500           0.01718584 C 
atom_frac            0.92927800           0.90950700           0.01744975 C 
atom_frac            0.92927800           0.90950700           0.01796692 C 
atom_frac            0.90545300           0.94407500           0.01823083 C 
atom_frac            0.98022900           0.90950700           0.01718567 C 
atom_frac            0.03862200           0.94407500           0.01744958 C 
atom_frac            0.03862200           0.94407500           0.01796709 C 
atom_frac            0.98022900           0.90950700           0.01823100 C 
atom_frac            0.08232610           0.00000000           0.01874811 C 
atom_frac            0.09454650           0.05592450           0.01901208 C 
atom_frac            0.09454660           0.05592450           0.01952959 C 
atom_frac            0.08232610           0.00000002           0.01979355 C 
atom_frac            0.07072190           0.09049270           0.01874817 C 
atom_frac            0.01977080           0.09049270           0.01901225 C 
atom_frac            0.01977080           0.09049260           0.01952942 C 
atom_frac            0.07072190           0.09049270           0.01979350 C 
atom_frac            0.96137800           0.05592450           0.01874833 C 
atom_frac            0.91767400           0.00000003           0.01901230 C 
atom_frac            0.91767400           0.00000001           0.01952936 C 
atom_frac            0.96137800           0.05592450           0.01979333 C 
atom_frac            0.90545300           0.94407500           0.01874833 C 
atom_frac            0.92927800           0.90950700           0.01901225 C 
atom_frac            0.92927800           0.90950700           0.01952942 C 
atom_frac            0.90545300           0.94407500           0.01979333 C 
atom_frac            0.98022900           0.90950700           0.01874817 C 
atom_frac            0.03862200           0.94407500           0.01901208 C 
atom_frac            0.03862200           0.94407500           0.01952959 C 
atom_frac            0.98022900           0.90950700           0.01979350 C 
atom_frac            0.08232610           0.00000000           0.02031061 C 
atom_frac            0.09454650           0.05592450           0.02057458 C 
atom_frac            0.09454660           0.05592450           0.02109209 C 
atom_frac            0.08232610           0.00000002           0.02135605 C 
atom_frac            0.07072190           0.09049270           0.02031067 C 
atom_frac            0.01977080           0.09049270           0.02057475 C 
atom_frac            0.01977080           0.09049260           0.02109192 C 
atom_frac            0.07072190           0.09049270           0.02135600 C 
atom_frac            0.96137800           0.05592450           0.02031083 C 
atom_frac            0.91767400           0.00000003           0.02057480 C 
atom_frac            0.91767400           0.00000001           0.02109186 C 
atom_frac            0.96137800           0.05592450           0.02135583 C 
atom_frac            0.90545300           0.94407500           0.02031083 C 
atom_frac            0.92927800           0.90950700           0.02057475 C 
atom_frac            0.92927800           0.90950700           0.02109192 C 
atom_frac            0.90545300           0.94407500           0.02135583 C 
atom_frac            0.98022900           0.90950700           0.02031067 C 
atom_frac            0.03862200           0.94407500           0.02057458 C 
atom_frac            0.03862200           0.94407500           0.02109209 C 
atom_frac            0.98022900           0.90950700           0.02135600 C 
atom_frac            0.08232610           0.00000000           0.02187311 C 
atom_frac            0.09454650           0.05592450           0.02213708 C 
atom_frac            0.09454660           0.05592450           0.02265459 C 
atom_frac            0.08232610           0.00000002           0.02291855 C 
atom_frac            0.07072190           0.09049270           0.02187317 C 
atom_frac            0.01977080           0.09049270           0.02213725 C 
atom_frac            0.01977080           0.09049260           0.02265442 C 
atom_frac            0.07072190           0.09049270           0.02291850 C 
atom_frac            0.96137800           0.05592450           0.02187333 C 
atom_frac            0.91767400           0.00000003           0.02213730 C 
atom_frac            0.91767400           0.00000001           0.02265436 C 
atom_frac            0.96137800           0.05592450           0.02291833 C 
atom_frac            0.90545300           0.94407500           0.02187333 C 
atom_frac            0.92927800           0.90950700           0.02213725 C 
atom_frac            0.92927800           0.90950700           0.02265442 C 
atom_frac            0.90545300           0.94407500           0.02291833 C 
atom_frac            0.98022900           0.90950700           0.02187317 C 
atom_frac            0.03862200           0.94407500           0.02213708 C 
atom_frac            0.03862200           0.94407500           0.02265459 C 
atom_frac            0.98022900           0.90950700           0.02291850 C 
atom_frac            0.08232610           0.00000000           0.02343561 C 
atom_frac            0.09454650           0.05592450           0.02369958 C 
atom_frac            0.09454660           0.05592450           0.02421709 C 
atom_frac            0.08232610           0.00000002           0.02448105 C 
atom_frac            0.07072190           0.09049270           0.02343567 C 
atom_frac            0.01977080           0.09049270           0.02369975 C 
atom_frac            0.01977080           0.09049260           0.02421692 C 
atom_frac            0.07072190           0.09049270           0.02448100 C 
atom_frac            0.96137800           0.05592450           0.02343583 C 
atom_frac            0.91767400           0.00000003           0.02369980 C 
atom_frac            0.91767400           0.00000001           0.02421686 C 
atom_frac            0.96137800           0.05592450           0.02448083 C 
atom_frac            0.90545300           0.94407500           0.02343583 C 
atom_frac            0.92927800           0.90950700           0.02369975 C 
atom_frac            0.92927800           0.90950700           0.02421692 C 
atom_frac            0.90545300           0.94407500           0.02448083 C 
atom_frac            0.98022900           0.90950700           0.02343567 C 
atom_frac            0.03862200           0.94407500           0.02369958 C 
atom_frac            0.03862200           0.94407500           0.02421709 C 
atom_frac            0.98022900           0.90950700           0.02448100 C 
atom_frac            0.08232610           0.00000000           0.02499811 C 
atom_frac            0.09454650           0.05592450           0.02526208 C 
atom_frac            0.09454660           0.05592450           0.02577959 C 
atom_frac            0.08232610           0.00000002           0.02604355 C 
atom_frac            0.07072190           0.09049270           0.02499817 C 
atom_frac            0.01977080           0.09049270           0.02526225 C 
atom_frac            0.01977080           0.09049260           0.02577942 C 
atom_frac            0.07072190           0.09049270           0.02604350 C 
atom_frac            0.96137800           0.05592450           0.02499833 C 
atom_frac            0.91767400           0.00000003           0.02526230 C 
atom_frac            0.91767400           0.00000001           0.02577936 C 
atom_frac            0.96137800           0.05592450           0.02604333 C 
atom_frac            0.90545300           0.94407500           0.02499833 C 
atom_frac            0.92927800           0.90950700           0.02526225 C 
atom_frac            0.92927800           0.90950700           0.02577942 C 
atom_frac            0.90545300           0.94407500           0.02604333 C 
atom_frac            0.98022900           0.90950700           0.02499817 C 
atom_frac            0.03862200           0.94407500           0.02526208 C 
atom_frac            0.03862200           0.94407500           0.02577959 C 
atom_frac            0.98022900           0.90950700           0.02604350 C 
atom_frac            0.08232610           0.00000000           0.02656061 C 
atom_frac            0.09454650           0.05592450           0.02682458 C 
atom_frac            0.09454660           0.05592450           0.02734209 C 
atom_frac            0.08232610           0.00000002           0.02760605 C 
atom_frac            0.07072190           0.09049270           0.02656067 C 
atom_frac            0.01977080           0.09049270           0.02682475 C 
atom_frac            0.01977080           0.09049260           0.02734192 C 
atom_frac            0.07072190           0.09049270           0.02760600 C 
atom_frac            0.96137800           0.05592450           0.02656083 C 
atom_frac            0.91767400           0.00000003           0.02682480 C 
atom_frac            0.91767400           0.00000001           0.02734186 C 
atom_frac            0.96137800           0.05592450           0.02760583 C 
atom_frac            0.90545300           0.94407500           0.02656083 C 
atom_frac            0.92927800           0.90950700           0.02682475 C 
atom_frac            0.92927800           0.90950700           0.02734192 C 
atom_frac            0.90545300           0.94407500           0.02760583 C 
atom_frac            0.98022900           0.90950700           0.02656067 C 
atom_frac            0.03862200           0.94407500           0.02682458 C 
atom_frac            0.03862200           0.94407500           0.02734209 C 
atom_frac            0.98022900           0.90950700           0.02760600 C 
atom_frac            0.08232610           0.00000000           0.02812311 C 
atom_frac            0.09454650           0.05592450           0.02838708 C 
atom_frac            0.09454660           0.05592450           0.02890458 C 
atom_frac            0.08232610           0.00000002           0.02916855 C 
atom_frac            0.07072190           0.09049270           0.02812317 C 
atom_frac            0.01977080           0.09049270           0.02838725 C 
atom_frac            0.01977080           0.09049260           0.02890442 C 
atom_frac            0.07072190           0.09049270           0.02916850 C 
atom_frac            0.96137800           0.05592450           0.02812333 C 
atom_frac            0.91767400           0.00000003           0.02838730 C 
atom_frac            0.91767400           0.00000001           0.02890436 C 
atom_frac            0.96137800           0.05592450           0.02916833 C 
atom_frac            0.90545300           0.94407500           0.02812333 C 
atom_frac            0.92927800           0.90950700           0.02838725 C 
atom_frac            0.92927800           0.90950700           0.02890442 C 
atom_frac            0.90545300           0.94407500           0.02916833 C 
atom_frac            0.98022900           0.90950700           0.02812317 C 
atom_frac            0.03862200           0.94407500           0.02838708 C 
atom_frac            0.03862200           0.94407500           0.02890458 C 
atom_frac            0.98022900           0.90950700           0.02916850 C 
atom_frac            0.08232610           0.00000000           0.02968561 C 
atom_frac            0.09454650           0.05592450           0.02994958 C 
atom_frac            0.09454660           0.05592450           0.03046708 C 
atom_frac            0.08232610           0.00000002           0.03073105 C 
atom_frac            0.07072190           0.09049270           0.02968567 C 
atom_frac            0.01977080           0.09049270           0.02994975 C 