lattice_vector           25.00000000           0.00000000           0.00000000
lattice_vector          -12.50000000          21.65000000           0.00000000
lattice_vector            0.00000000           0.00000000        1363.20000000

atom_frac            0.08232610           0.00000000           0.03124622 C 
atom_frac            0.09454650           0.05592450           0.00052416 C 
atom_frac            0.09454660           0.05592450           0.00155917 C 
atom_frac            0.08232610           0.00000002           0.00208711 C 
atom_frac            0.07072190           0.09049270           0.03124634 C 
atom_frac            0.01977080           0.09049270           0.00052450 C 
atom_frac            0.01977080           0.09049260           0.00155883 C 
atom_frac            0.07072190           0.09049270           0.00208700 C 
atom_frac            0.96137800           0.05592450           0.03124666 C 
atom_frac            0.91767400           0.00000003           0.00052461 C 
atom_frac            0.91767400           0.00000001           0.00155872 C 
atom_frac            0.96137800           0.05592450           0.00208667 C 
atom_frac            0.90545300           0.94407500           0.03124666 C 
atom_frac            0.92927800           0.90950700           0.00052450 C 
atom_frac            0.92927800           0.90950700           0.00155883 C 
atom_frac            0.90545300           0.94407500           0.00208667 C 
atom_frac            0.98022900           0.90950700           0.03124634 C 
atom_frac            0.03862200           0.94407500           0.00052416 C 
atom_frac            0.03862200           0.94407500           0.00155917 C 
atom_frac            0.98022900           0.90950700           0.00208700 C 
atom_frac            0.08232610           0.00000000           0.00312123 C 
atom_frac            0.09454650           0.05592450           0.00364915 C 
atom_frac            0.09454660           0.05592450           0.00468419 C 
atom_frac            0.08232610           0.00000002           0.00521209 C 
atom_frac            0.07072190           0.09049270           0.00312133 C 
atom_frac            0.01977080           0.09049270           0.00364950 C 
atom_frac            0.01977080           0.09049260           0.00468384 C 
atom_frac            0.07072190           0.09049270           0.00521200 C 
atom_frac            0.96137800           0.05592450           0.00312167 C 
atom_frac            0.91767400           0.00000003           0.00364959 C 
atom_frac            0.91767400           0.00000001           0.00468372 C 
atom_frac            0.96137800           0.05592450           0.00521165 C 
atom_frac            0.90545300           0.94407500           0.00312167 C 
atom_frac            0.92927800           0.90950700           0.00364950 C 
atom_frac            0.92927800           0.90950700           0.00468384 C 
atom_frac            0.90545300           0.94407500           0.00521165 C 
atom_frac            0.98022900           0.90950700           0.00312133 C 
atom_frac            0.03862200           0.94407500           0.00364915 C 
atom_frac            0.03862200           0.94407500           0.00468419 C 
atom_frac            0.98022900           0.90950700           0.00521200 C 
atom_frac            0.08232610           0.00000000           0.00624622 C 
atom_frac            0.09454650           0.05592450           0.00677415 C 
atom_frac            0.09454660           0.05592450           0.00780919 C 
atom_frac            0.08232610           0.00000002           0.00833709 C 
atom_frac            0.07072190           0.09049270           0.00624635 C 
atom_frac            0.01977080           0.09049270           0.00677450 C 
atom_frac            0.01977080           0.09049260           0.00780885 C 
atom_frac            0.07072190           0.09049270           0.00833700 C 
atom_frac            0.96137800           0.05592450           0.00624666 C 
atom_frac            0.91767400           0.00000003           0.00677459 C 
atom_frac            0.91767400           0.00000001           0.00780872 C 
atom_frac            0.96137800           0.05592450           0.00833666 C 
atom_frac            0.90545300           0.94407500           0.00624666 C 
atom_frac            0.92927800           0.90950700           0.00677450 C 
atom_frac            0.92927800           0.90950700           0.00780885 C 
atom_frac            0.90545300           0.94407500           0.00833666 C 
atom_frac            0.98022900           0.90950700           0.00624635 C 
atom_frac            0.03862200           0.94407500           0.00677415 C 
atom_frac            0.03862200           0.94407500           0.00780919 C 
atom_frac            0.98022900           0.90950700           0.00833700 C 
atom_frac            0.08232610           0.00000000           0.00937122 C 
atom_frac            0.09454650           0.05592450           0.00989915 C 
atom_frac            0.09454660           0.05592450           0.01093419 C 
atom_frac            0.08232610           0.00000002           0.01146210 C 
atom_frac            0.07072190           0.09049270           0.00937134 C 
atom_frac            0.01977080           0.09049270           0.00989950 C 
atom_frac            0.01977080           0.09049260           0.01093384 C 
atom_frac            0.07072190           0.09049270           0.01146200 C 
atom_frac            0.96137800           0.05592450           0.00937165 C 
atom_frac            0.91767400           0.00000003           0.00989960 C 
atom_frac            0.91767400           0.00000001           0.01093372 C 
atom_frac            0.96137800           0.05592450           0.01146165 C 
atom_frac            0.90545300           0.94407500           0.00937165 C 
atom_frac            0.92927800           0.90950700           0.00989950 C 
atom_frac            0.92927800           0.90950700           0.01093384 C 
atom_frac            0.90545300           0.94407500           0.01146165 C 
atom_frac            0.98022900           0.90950700           0.00937134 C 
atom_frac            0.03862200           0.94407500           0.00989915 C 
atom_frac            0.03862200           0.94407500           0.01093419 C 
atom_frac            0.98022900           0.90950700           0.01146200 C 
atom_frac            0.08232610           0.00000000           0.01249622 C 
atom_frac            0.09454650           0.05592450           0.01302416 C 
atom_frac            0.09454660           0.05592450           0.01405919 C 
atom_frac            0.08232610           0.00000002           0.01458709 C 
atom_frac            0.07072190           0.09049270           0.01249635 C 
atom_frac            0.01977080           0.09049270           0.01302450 C 
atom_frac            0.01977080           0.09049260           0.01405885 C 
atom_frac            0.07072190           0.09049270           0.01458700 C 
atom_frac            0.96137800           0.05592450           0.01249666 C 
atom_frac            0.91767400           0.00000003           0.01302459 C 
atom_frac            0.91767400           0.00000001           0.01405872 C 
atom_frac            0.96137800           0.05592450           0.01458666 C 
atom_frac            0.90545300           0.94407500           0.01249666 C 
atom_frac            0.92927800           0.90950700           0.01302450 C 
atom_frac            0.92927800           0.90950700           0.01405885 C 
atom_frac            0.90545300           0.94407500           0.01458666 C 
atom_frac            0.98022900           0.90950700           0.01249635 C 
atom_frac            0.03862200           0.94407500           0.01302416 C 
atom_frac            0.03862200           0.94407500           0.01405919 C 
atom_frac            0.98022900           0.90950700           0.01458700 C 
atom_frac            0.08232610           0.00000000           0.01562122 C 
atom_frac            0.09454650           0.05592450           0.01614915 C 
atom_frac            0.09454660           0.05592450           0.01718419 C 
atom_frac            0.08232610           0.00000002           0.01771210 C 
atom_frac            0.07072190           0.09049270           0.01562135 C 
atom_frac            0.01977080           0.09049270           0.01614950 C 
atom_frac            0.01977080           0.09049260           0.01718384 C 
atom_frac            0.07072190           0.09049270           0.01771200 C 
atom_frac            0.96137800           0.05592450           0.01562165 C 
atom_frac            0.91767400           0.00000003           0.01614959 C 
atom_frac            0.91767400           0.00000001           0.01718372 C 
atom_frac            0.96137800           0.05592450           0.01771165 C 
atom_frac            0.90545300           0.94407500           0.01562165 C 
atom_frac            0.92927800           0.90950700           0.01614950 C 
atom_frac            0.92927800           0.90950700           0.01718384 C 
atom_frac            0.90545300           0.94407500           0.01771165 C 
atom_frac            0.98022900           0.90950700           0.01562135 C 
atom_frac            0.03862200           0.94407500           0.01614915 C 
atom_frac            0.03862200           0.94407500           0.01718419 C 
atom_frac            0.98022900           0.90950700           0.01771200 C 
atom_frac            0.08232610           0.00000000           0.01874622 C 
atom_frac            0.09454650           0.05592450           0.01927416 C 
atom_frac            0.09454660           0.05592450           0.02030919 C 
atom_frac            0.08232610           0.00000002           0.02083709 C 
atom_frac            0.07072190           0.09049270           0.01874635 C 
atom_frac            0.01977080           0.09049270           0.01927450 C 
atom_frac            0.01977080           0.09049260           0.02030884 C 
atom_frac            0.07072190           0.09049270           0.02083700 C 
atom_frac            0.96137800           0.05592450           0.01874666 C 
atom_frac            0.91767400           0.00000003           0.01927459 C 
atom_frac            0.91767400           0.00000001           0.02030872 C 
atom_frac            0.96137800           0.05592450           0.02083665 C 
atom_frac            0.90545300           0.94407500           0.01874666 C 
atom_frac            0.92927800           0.90950700           0.01927450 C 
atom_frac            0.92927800           0.90950700           0.02030884 C 
atom_frac            0.90545300           0.94407500           0.02083665 C 
atom_frac            0.98022900           0.90950700           0.01874635 C 
atom_frac            0.03862200           0.94407500           0.01927416 C 
atom_frac            0.03862200           0.94407500           0.02030919 C 
atom_frac            0.98022900           0.90950700           0.02083700 C 
atom_frac            0.08232610           0.00000000           0.02187122 C 
atom_frac            0.09454650           0.05592450           0.02239916 C 
atom_frac            0.09454660           0.05592450           0.02343418 C 
atom_frac            0.08232610           0.00000002           0.02396209 C 
atom_frac            0.07072190           0.09049270           0.02187135 C 
atom_frac            0.01977080           0.09049270           0.02239950 C 
atom_frac            0.01977080           0.09049260           0.02343384 C 
atom_frac            0.07072190           0.09049270           0.02396200 C 
atom_frac            0.96137800           0.05592450           0.02187166 C 
atom_frac            0.91767400           0.00000003           0.02239960 C 
atom_frac            0.91767400           0.00000001           0.02343372 C 
atom_frac            0.96137800           0.05592450           0.02396165 C 
atom_frac            0.90545300           0.94407500           0.02187166 C 
atom_frac            0.92927800           0.90950700           0.02239950 C 
atom_frac            0.92927800           0.90950700           0.02343384 C 
atom_frac            0.90545300           0.94407500           0.02396165 C 
atom_frac            0.98022900           0.90950700           0.02187135 C 
atom_frac            0.03862200           0.94407500           0.02239916 C 
atom_frac            0.03862200           0.94407500           0.02343418 C 
atom_frac            0.98022900           0.90950700           0.02396200 C 
atom_frac            0.08232610           0.00000000           0.02499622 C 
atom_frac            0.09454650           0.05592450           0.02552415 C 
atom_frac            0.09454660           0.05592450           0.02655916 C 
atom_frac            0.08232610           0.00000002           0.02708709 C 
atom_frac            0.07072190           0.09049270           0.02499634 C 
atom_frac            0.01977080           0.09049270           0.02552450 C 
atom_frac            0.01977080           0.09049260           0.02655885 C 
atom_frac            0.07072190           0.09049270           0.02708700 C 
atom_frac            0.96137800           0.05592450           0.02499665 C 
atom_frac            0.91767400           0.00000003           0.02552460 C 
atom_frac            0.91767400           0.00000001           0.02655872 C 
atom_frac            0.96137800           0.05592450           0.02708666 C 
atom_frac            0.90545300           0.94407500           0.02499665 C 
atom_frac            0.92927800           0.90950700           0.02552450 C 
atom_frac            0.92927800           0.90950700           0.02655885 C 
atom_frac            0.90545300           0.94407500           0.02708666 C 
atom_frac            0.98022900           0.90950700           0.02499634 C 
atom_frac            0.03862200           0.94407500           0.02552415 C 
atom_frac            0.03862200           0.94407500           0.02655916 C 
atom_frac            0.98022900           0.90950700           0.02708700 C 
atom_frac            0.08232610           0.00000000           0.02812122 C 
atom_frac            0.09454650           0.05592450           0.02864915 C 
atom_frac            0.09454660           0.05592450           0.02968416 C 
atom_frac            0.08232610           0.00000002           0.03021210 C 
atom_frac            0.07072190           0.09049270           0.02812134 C 
atom_frac            0.01977080           0.09049270           0.02864950 C 
atom_frac            0.01977080           0.09049260           0.02968385 C 
atom_frac            0.07072190           0.09049270           0.03021200 C 
atom_frac            0.96137800           0.05592450           0.02812165 C 
atom_frac            0.91767400           0.00000003           0.02864959 C 
atom_frac            0.91767400           0.00000001           0.02968372 C 
atom_frac            0.96137800           0.05592450           0.03021166 C 
atom_frac            0.90545300           0.94407500           0.02812165 C 
atom_frac            0.92927800           0.90950700           0.02864950 C 
atom_frac            0.92927800           0.90950700           0.02968385 C 
atom_frac            0.90545300           0.94407500           0.03021166 C 
atom_frac            0.98022900           0.90950700           0.02812134 C 
atom_frac            0.03862200           0.94407500           0.02864915 C 
atom_frac            0.03862200           0.94407500           0.02968416 C 
atom_frac            0.98022900           0.90950700           0.03021200 C 
atom_frac            0.08232610           0.00000000           0.06249622 C 
atom_frac            0.09454650           0.05592450           0.03177417 C 
atom_frac            0.09454660           0.05592450           0.03280917 C 
atom_frac            0.08232610           0.00000002           0.03333710 C 
atom_frac            0.07072190           0.09049270           0.06249635 C 
atom_frac            0.01977080           0.09049270           0.03177451 C 
atom_frac            0.01977080           0.09049260           0.03280883 C 
atom_frac            0.07072190           0.09049270           0.03333701 C 
atom_frac            0.96137800           0.05592450           0.06249665 C 
atom_frac            0.91767400           0.00000003           0.03177460 C 
atom_frac            0.91767400           0.00000001           0.03280872 C 
atom_frac            0.96137800           0.05592450           0.03333667 C 
atom_frac            0.90545300           0.94407500           0.06249665 C 
atom_frac            0.92927800           0.90950700           0.03177451 C 
atom_frac            0.92927800           0.90950700           0.03280883 C 
atom_frac            0.90545300           0.94407500           0.03333667 C 
atom_frac            0.98022900           0.90950700           0.06249635 C 
atom_frac            0.03862200           0.94407500           0.03177417 C 
atom_frac            0.03862200           0.94407500           0.03280917 C 
atom_frac            0.98022900           0.90950700           0.03333701 C 
atom_frac            0.08232610           0.00000000           0.03437122 C 
atom_frac            0.09454650           0.05592450           0.03489916 C 
atom_frac            0.09454660           0.05592450           0.03593419 C 
atom_frac            0.08232610           0.00000002           0.03646209 C 
atom_frac            0.07072190           0.09049270           0.03437133 C 
atom_frac            0.01977080           0.09049270           0.03489950 C 
atom_frac            0.01977080           0.09049260           0.03593384 C 
atom_frac            0.07072190           0.09049270           0.03646200 C 
atom_frac            0.96137800           0.05592450           0.03437167 C 
atom_frac            0.91767400           0.00000003           0.03489959 C 
atom_frac            0.91767400           0.00000001           0.03593372 C 
atom_frac            0.96137800           0.05592450           0.03646166 C 
atom_frac            0.90545300           0.94407500           0.03437167 C 
atom_frac            0.92927800           0.90950700           0.03489950 C 
atom_frac            0.92927800           0.90950700           0.03593384 C 
atom_frac            0.90545300           0.94407500           0.03646166 C 
atom_frac            0.98022900           0.90950700           0.03437133 C 
atom_frac            0.03862200           0.94407500           0.03489916 C 
atom_frac            0.03862200           0.94407500           0.03593419 C 
atom_frac            0.98022900           0.90950700           0.03646200 C 
atom_frac            0.08232610           0.00000000           0.03749622 C 
atom_frac            0.09454650           0.05592450           0.03802415 C 
atom_frac            0.09454660           0.05592450           0.03905919 C 
atom_frac            0.08232610           0.00000002           0.03958710 C 
atom_frac            0.07072190           0.09049270           0.03749635 C 
atom_frac            0.01977080           0.09049270           0.03802450 C 
atom_frac            0.01977080           0.09049260           0.03905885 C 
atom_frac            0.07072190           0.09049270           0.03958700 C 
atom_frac            0.96137800           0.05592450           0.03749665 C 
atom_frac            0.91767400           0.00000003           0.03802460 C 
atom_frac            0.91767400           0.00000001           0.03905872 C 
atom_frac            0.96137800           0.05592450           0.03958665 C 
atom_frac            0.90545300           0.94407500           0.03749665 C 
atom_frac            0.92927800           0.90950700           0.03802450 C 
atom_frac            0.92927800           0.90950700           0.03905885 C 
atom_frac            0.90545300           0.94407500           0.03958665 C 
atom_frac            0.98022900           0.90950700           0.03749635 C 
atom_frac            0.03862200           0.94407500           0.03802415 C 
atom_frac            0.03862200           0.94407500           0.03905919 C 
atom_frac            0.98022900           0.90950700           0.03958700 C 
atom_frac            0.08232610           0.00000000           0.04062122 C 
atom_frac            0.09454650           0.05592450           0.04114915 C 
atom_frac            0.09454660           0.05592450           0.04218418 C 
atom_frac            0.08232610           0.00000002           0.04271209 C 
atom_frac            0.07072190           0.09049270           0.04062135 C 
atom_frac            0.01977080           0.09049270           0.04114950 C 
atom_frac            0.01977080           0.09049260           0.04218384 C 
atom_frac            0.07072190           0.09049270           0.04271200 C 
atom_frac            0.96137800           0.05592450           0.04062165 C 
atom_frac            0.91767400           0.00000003           0.04114959 C 
atom_frac            0.91767400           0.00000001           0.04218372 C 
atom_frac            0.96137800           0.05592450           0.04271166 C 
atom_frac            0.90545300           0.94407500           0.04062165 C 
atom_frac            0.92927800           0.90950700           0.04114950 C 
atom_frac            0.92927800           0.90950700           0.04218384 C 
atom_frac            0.90545300           0.94407500           0.04271166 C 
atom_frac            0.98022900           0.90950700           0.04062135 C 
atom_frac            0.03862200           0.94407500           0.04114915 C 
atom_frac            0.03862200           0.94407500           0.04218418 C 
atom_frac            0.98022900           0.90950700           0.04271200 C 
atom_frac            0.08232610           0.00000000           0.04374622 C 
atom_frac            0.09454650           0.05592450           0.04427416 C 
atom_frac            0.09454660           0.05592450           0.04530919 C 
atom_frac            0.08232610           0.00000002           0.04583710 C 
atom_frac            0.07072190           0.09049270           0.04374634 C 
atom_frac            0.01977080           0.09049270           0.04427450 C 
atom_frac            0.01977080           0.09049260           0.04530885 C 
atom_frac            0.07072190           0.09049270           0.04583700 C 
atom_frac            0.96137800           0.05592450           0.04374666 C 
atom_frac            0.91767400           0.00000003           0.04427459 C 
atom_frac            0.91767400           0.00000001           0.04530872 C 
atom_frac            0.96137800           0.05592450           0.04583665 C 
atom_frac            0.90545300           0.94407500           0.04374666 C 
atom_frac            0.92927800           0.90950700           0.04427450 C 
atom_frac            0.92927800           0.90950700           0.04530885 C 
atom_frac            0.90545300           0.94407500           0.04583665 C 
atom_frac            0.98022900           0.90950700           0.04374634 C 
atom_frac            0.03862200           0.94407500           0.04427416 C 
atom_frac            0.03862200           0.94407500           0.04530919 C 
atom_frac            0.98022900           0.90950700           0.04583700 C 
atom_frac            0.08232610           0.00000000           0.04687122 C 
atom_frac            0.09454650           0.05592450           0.04739915 C 
atom_frac            0.09454660           0.05592450           0.04843419 C 
atom_frac            0.08232610           0.00000002           0.04896209 C 
atom_frac            0.07072190           0.09049270           0.04687135 C 
atom_frac            0.01977080           0.09049270           0.04739950 C 
atom_frac            0.01977080           0.09049260           0.04843385 C 
atom_frac            0.07072190           0.09049270           0.04896200 C 
atom_frac            0.96137800           0.05592450           0.04687165 C 
atom_frac            0.91767400           0.00000003           0.04739960 C 
atom_frac            0.91767400           0.00000001           0.04843372 C 
atom_frac            0.96137800           0.05592450           0.04896165 C 
atom_frac            0.90545300           0.94407500           0.04687165 C 
atom_frac            0.92927800           0.90950700           0.04739950 C 
atom_frac            0.92927800           0.90950700           0.04843385 C 
atom_frac            0.90545300           0.94407500           0.04896165 C 
atom_frac            0.98022900           0.90950700           0.04687135 C 
atom_frac            0.03862200           0.94407500           0.04739915 C 
atom_frac            0.03862200           0.94407500           0.04843419 C 
atom_frac            0.98022900           0.90950700           0.04896200 C 
atom_frac            0.08232610           0.00000000           0.04999622 C 
atom_frac            0.09454650           0.05592450           0.05052416 C 
atom_frac            0.09454660           0.05592450           0.05155919 C 
atom_frac            0.08232610           0.00000002           0.05208709 C 
atom_frac            0.07072190           0.09049270           0.04999634 C 
atom_frac            0.01977080           0.09049270           0.05052450 C 
atom_frac            0.01977080           0.09049260           0.05155884 C 
atom_frac            0.07072190           0.09049270           0.05208700 C 
atom_frac            0.96137800           0.05592450           0.04999666 C 
atom_frac            0.91767400           0.00000003           0.05052459 C 
atom_frac            0.91767400           0.00000001           0.05155872 C 
atom_frac            0.96137800           0.05592450           0.05208666 C 
atom_frac            0.90545300           0.94407500           0.04999666 C 
atom_frac            0.92927800           0.90950700           0.05052450 C 
atom_frac            0.92927800           0.90950700           0.05155884 C 
atom_frac            0.90545300           0.94407500           0.05208666 C 
atom_frac            0.98022900           0.90950700           0.04999634 C 
atom_frac            0.03862200           0.94407500           0.05052416 C 
atom_frac            0.03862200           0.94407500           0.05155919 C 
atom_frac            0.98022900           0.90950700           0.05208700 C 
atom_frac            0.08232610           0.00000000           0.05312122 C 
atom_frac            0.09454650           0.05592450           0.05364915 C 
atom_frac            0.09454660           0.05592450           0.05468419 C 
atom_frac            0.08232610           0.00000002           0.05521210 C 
atom_frac            0.07072190           0.09049270           0.05312135 C 
atom_frac            0.01977080           0.09049270           0.05364950 C 
atom_frac            0.01977080           0.09049260           0.05468385 C 
atom_frac            0.07072190           0.09049270           0.05521200 C 
atom_frac            0.96137800           0.05592450           0.05312165 C 
atom_frac            0.91767400           0.00000003           0.05364960 C 
atom_frac            0.91767400           0.00000001           0.05468372 C 
atom_frac            0.96137800           0.05592450           0.05521165 C 
atom_frac            0.90545300           0.94407500           0.05312165 C 
atom_frac            0.92927800           0.90950700           0.05364950 C 
atom_frac            0.92927800           0.90950700           0.05468385 C 
atom_frac            0.90545300           0.94407500           0.05521165 C 
atom_frac            0.98022900           0.90950700           0.05312135 C 
atom_frac            0.03862200           0.94407500           0.05364915 C 
atom_frac            0.03862200           0.94407500           0.05468419 C 
atom_frac            0.98022900           0.90950700           0.05521200 C 
atom_frac            0.08232610           0.00000000           0.05624622 C 
atom_frac            0.09454650           0.05592450           0.05677415 C 
atom_frac            0.09454660           0.05592450           0.05780916 C 
atom_frac            0.08232610           0.00000002           0.05833709 C 
atom_frac            0.07072190           0.09049270           0.05624635 C 
atom_frac            0.01977080           0.09049270           0.05677450 C 
atom_frac            0.01977080           0.09049260           0.05780884 C 
atom_frac            0.07072190           0.09049270           0.05833700 C 
atom_frac            0.96137800           0.05592450           0.05624665 C 
atom_frac            0.91767400           0.00000003           0.05677459 C 
atom_frac            0.91767400           0.00000001           0.05780872 C 
atom_frac            0.96137800           0.05592450           0.05833666 C 
atom_frac            0.90545300           0.94407500           0.05624665 C 
atom_frac            0.92927800           0.90950700           0.05677450 C 
atom_frac            0.92927800           0.90950700           0.05780884 C 
atom_frac            0.90545300           0.94407500           0.05833666 C 
atom_frac            0.98022900           0.90950700           0.05624635 C 
atom_frac            0.03862200           0.94407500           0.05677415 C 
atom_frac            0.03862200           0.94407500           0.05780916 C 
atom_frac            0.98022900           0.90950700           0.05833700 C 
atom_frac            0.08232610           0.00000000           0.05937122 C 
atom_frac            0.09454650           0.05592450           0.05989916 C 
atom_frac            0.09454660           0.05592450           0.06093415 C 
atom_frac            0.08232610           0.00000002           0.06146210 C 
atom_frac            0.07072190           0.09049270           0.05937134 C 
atom_frac            0.01977080           0.09049270           0.05989950 C 