LatticeConstant             1.00 Ang

%block LatticeVectors
     1.230600     -2.131462      0.000000
     1.230600      2.131462      0.000000
     0.000000      0.000000      6.709000
%endblock LatticeVectors

NumberOfSpecies        1
NumberOfAtoms          4

%block ChemicalSpeciesLabel
  1   6  C
%endblock ChemicalSpeciesLabel

AtomicCoordinatesFormat Ang

%block AtomicCoordinatesAndAtomicSpecies
      0.0000000      0.0000000      1.6772500     1
      0.0000000      0.0000000      5.0317500     1
      1.2306000      0.7104872      1.6772500     1
      1.2306000     -0.7104872      5.0317500     1
%endblock AtomicCoordinatesAndAtomicSpecies
