SystemName          carbon
SystemLabel         2d1

LatticeConstant             1.00 Ang

%block LatticeVectors
    12.306000    -21.314600      0.000000
    12.306000     21.314600      0.000000
     0.000000      0.000000     25.000000
%endblock LatticeVectors

NumberOfSpecies        1
NumberOfAtoms        200

%block ChemicalSpeciesLabel
  1   6  C
%endblock ChemicalSpeciesLabel

AtomicCoordinatesFormat Ang

%block AtomicCoordinatesAndAtomicSpecies
     11.0754000     19.1831400      0.0000000     1
     12.3060000     19.8936281      0.0000000     1
      0.0000000      0.0000000      0.0000000     1
      1.2306000      0.7104881      0.0000000     1
      1.2306000      2.1314600      0.0000000     1
      2.4612000      2.8419481      0.0000000     1
      2.4612000      4.2629200      0.0000000     1
      3.6918000      4.9734081      0.0000000     1
      3.6918000      6.3943800      0.0000000     1
      4.9224000      7.1048681      0.0000000     1
      4.9224000      8.5258400      0.0000000     1
      6.1530000      9.2363281      0.0000000     1
      6.1530000     10.6573000      0.0000000     1
      7.3836000     11.3677881      0.0000000     1
      7.3836000     12.7887600      0.0000000     1
      8.6142000     13.4992481      0.0000000     1
      8.6142000     14.9202200      0.0000000     1
      9.8448000     15.6307081      0.0000000     1
      9.8448000     17.0516800      0.0000000     1
     11.0754000     17.7621681      0.0000000     1
     12.3060000     17.0516800      0.0000000     1
     13.5366000     17.7621681      0.0000000     1
      1.2306000     -2.1314600      0.0000000     1
      2.4612000     -1.4209719      0.0000000     1
      2.4612000      0.0000000      0.0000000     1
      3.6918000      0.7104881      0.0000000     1
      3.6918000      2.1314600      0.0000000     1
      4.9224000      2.8419481      0.0000000     1
      4.9224000      4.2629200      0.0000000     1
      6.1530000      4.9734081      0.0000000     1
      6.1530000      6.3943800      0.0000000     1
      7.3836000      7.1048681      0.0000000     1
      7.3836000      8.5258400      0.0000000     1
      8.6142000      9.2363281      0.0000000     1
      8.6142000     10.6573000      0.0000000     1
      9.8448000     11.3677881      0.0000000     1
      9.8448000     12.7887600      0.0000000     1
     11.0754000     13.4992481      0.0000000     1
     11.0754000     14.9202200      0.0000000     1
     12.3060000     15.6307081      0.0000000     1
     13.5366000     14.9202200      0.0000000     1
     14.7672000     15.6307081      0.0000000     1
      2.4612000     -4.2629200      0.0000000     1
      3.6918000     -3.5524319      0.0000000     1
      3.6918000     -2.1314600      0.0000000     1
      4.9224000     -1.4209719      0.0000000     1
      4.9224000      0.0000000      0.0000000     1
      6.1530000      0.7104881      0.0000000     1
      6.1530000      2.1314600      0.0000000     1
      7.3836000      2.8419481      0.0000000     1
      7.3836000      4.2629200      0.0000000     1
      8.6142000      4.9734081      0.0000000     1
      8.6142000      6.3943800      0.0000000     1
      9.8448000      7.1048681      0.0000000     1
      9.8448000      8.5258400      0.0000000     1
     11.0754000      9.2363281      0.0000000     1
     11.0754000     10.6573000      0.0000000     1
     12.3060000     11.3677881      0.0000000     1
     12.3060000     12.7887600      0.0000000     1
     13.5366000     13.4992481      0.0000000     1
     14.7672000     12.7887600      0.0000000     1
     15.9978000     13.4992481      0.0000000     1
      3.6918000     -6.3943800      0.0000000     1
      4.9224000     -5.6838919      0.0000000     1
      4.9224000     -4.2629200      0.0000000     1
      6.1530000     -3.5524319      0.0000000     1
      6.1530000     -2.1314600      0.0000000     1
      7.3836000     -1.4209719      0.0000000     1
      7.3836000      0.0000000      0.0000000     1
      8.6142000      0.7104881      0.0000000     1
      8.6142000      2.1314600      0.0000000     1
      9.8448000      2.8419481      0.0000000     1
      9.8448000      4.2629200      0.0000000     1
     11.0754000      4.9734081      0.0000000     1
     11.0754000      6.3943800      0.0000000     1
     12.3060000      7.1048681      0.0000000     1
     12.3060000      8.5258400      0.0000000     1
     13.5366000      9.2363281      0.0000000     1
     13.5366000     10.6573000      0.0000000     1
     14.7672000     11.3677881      0.0000000     1
     15.9978000     10.6573000      0.0000000     1
     17.2284000     11.3677881      0.0000000     1
      4.9224000     -8.5258400      0.0000000     1
      6.1530000     -7.8153519      0.0000000     1
      6.1530000     -6.3943800      0.0000000     1
      7.3836000     -5.6838919      0.0000000     1
      7.3836000     -4.2629200      0.0000000     1
      8.6142000     -3.5524319      0.0000000     1
      8.6142000     -2.1314600      0.0000000     1
      9.8448000     -1.4209719      0.0000000     1
      9.8448000      0.0000000      0.0000000     1
     11.0754000      0.7104881      0.0000000     1
     11.0754000      2.1314600      0.0000000     1
     12.3060000      2.8419481      0.0000000     1
     12.3060000      4.2629200      0.0000000     1
     13.5366000      4.9734081      0.0000000     1
     13.5366000      6.3943800      0.0000000     1
     14.7672000      7.1048681      0.0000000     1
     14.7672000      8.5258400      0.0000000     1
     15.9978000      9.2363281      0.0000000     1
     17.2284000      8.5258400      0.0000000     1
     18.4590000      9.2363281      0.0000000     1
      6.1530000    -10.6573000      0.0000000     1
      7.3836000     -9.9468119      0.0000000     1
      7.3836000     -8.5258400      0.0000000     1
      8.6142000     -7.8153519      0.0000000     1
      8.6142000     -6.3943800      0.0000000     1
      9.8448000     -5.6838919      0.0000000     1
      9.8448000     -4.2629200      0.0000000     1
     11.0754000     -3.5524319      0.0000000     1
     11.0754000     -2.1314600      0.0000000     1
     12.3060000     -1.4209719      0.0000000     1
     12.3060000      0.0000000      0.0000000     1
     13.5366000      0.7104881      0.0000000     1
     13.5366000      2.1314600      0.0000000     1
     14.7672000      2.8419481      0.0000000     1
     14.7672000      4.2629200      0.0000000     1
     15.9978000      4.9734081      0.0000000     1
     15.9978000      6.3943800      0.0000000     1
     17.2284000      7.1048681      0.0000000     1
     18.4590000      6.3943800      0.0000000     1
     19.6896000      7.1048681      0.0000000     1
      7.3836000    -12.7887600      0.0000000     1
      8.6142000    -12.0782719      0.0000000     1
      8.6142000    -10.6573000      0.0000000     1
      9.8448000     -9.9468119      0.0000000     1
      9.8448000     -8.5258400      0.0000000     1
     11.0754000     -7.8153519      0.0000000     1
     11.0754000     -6.3943800      0.0000000     1
     12.3060000     -5.6838919      0.0000000     1
     12.3060000     -4.2629200      0.0000000     1
     13.5366000     -3.5524319      0.0000000     1
     13.5366000     -2.1314600      0.0000000     1
     14.7672000     -1.4209719      0.0000000     1
     14.7672000      0.0000000      0.0000000     1
     15.9978000      0.7104881      0.0000000     1
     15.9978000      2.1314600      0.0000000     1
     17.2284000      2.8419481      0.0000000     1
     17.2284000      4.2629200      0.0000000     1
     18.4590000      4.9734081      0.0000000     1
     19.6896000      4.2629200      0.0000000     1
     20.9202000      4.9734081      0.0000000     1
      8.6142000    -14.9202200      0.0000000     1
      9.8448000    -14.2097319      0.0000000     1
      9.8448000    -12.7887600      0.0000000     1
     11.0754000    -12.0782719      0.0000000     1
     11.0754000    -10.6573000      0.0000000     1
     12.3060000     -9.9468119      0.0000000     1
     12.3060000     -8.5258400      0.0000000     1
     13.5366000     -7.8153519      0.0000000     1
     13.5366000     -6.3943800      0.0000000     1
     14.7672000     -5.6838919      0.0000000     1
     14.7672000     -4.2629200      0.0000000     1
     15.9978000     -3.5524319      0.0000000     1
     15.9978000     -2.1314600      0.0000000     1
     17.2284000     -1.4209719      0.0000000     1
     17.2284000      0.0000000      0.0000000     1
     18.4590000      0.7104881      0.0000000     1
     18.4590000      2.1314600      0.0000000     1
     19.6896000      2.8419481      0.0000000     1
     20.9202000      2.1314600      0.0000000     1
     22.1508000      2.8419481      0.0000000     1
      9.8448000    -17.0516800      0.0000000     1
     11.0754000    -16.3411919      0.0000000     1
     11.0754000    -14.9202200      0.0000000     1
     12.3060000    -14.2097319      0.0000000     1
     12.3060000    -12.7887600      0.0000000     1
     13.5366000    -12.0782719      0.0000000     1
     13.5366000    -10.6573000      0.0000000     1
     14.7672000     -9.9468119      0.0000000     1
     14.7672000     -8.5258400      0.0000000     1
     15.9978000     -7.8153519      0.0000000     1
     15.9978000     -6.3943800      0.0000000     1
     17.2284000     -5.6838919      0.0000000     1
     17.2284000     -4.2629200      0.0000000     1
     18.4590000     -3.5524319      0.0000000     1
     18.4590000     -2.1314600      0.0000000     1
     19.6896000     -1.4209719      0.0000000     1
     19.6896000      0.0000000      0.0000000     1
     20.9202000      0.7104881      0.0000000     1
     22.1508000      0.0000000      0.0000000     1
     23.3814000      0.7104881      0.0000000     1
     11.0754000    -19.1831400      0.0000000     1
     12.3060000    -18.4726519      0.0000000     1
     12.3060000    -17.0516800      0.0000000     1
     13.5366000    -16.3411919      0.0000000     1
     13.5366000    -14.9202200      0.0000000     1
     14.7672000    -14.2097319      0.0000000     1
     14.7672000    -12.7887600      0.0000000     1
     15.9978000    -12.0782719      0.0000000     1
     15.9978000    -10.6573000      0.0000000     1
     17.2284000     -9.9468119      0.0000000     1
     17.2284000     -8.5258400      0.0000000     1
     18.4590000     -7.8153519      0.0000000     1
     18.4590000     -6.3943800      0.0000000     1
     19.6896000     -5.6838919      0.0000000     1
     19.6896000     -4.2629200      0.0000000     1
     20.9202000     -3.5524319      0.0000000     1
     20.9202000     -2.1314600      0.0000000     1
     22.1508000     -1.4209719      0.0000000     1
%endblock AtomicCoordinatesAndAtomicSpecies
