lattice_vector            4.92240000          -8.52584000           0.00000000
lattice_vector            4.92240000           8.52584000           0.00000000
lattice_vector            0.00000000           0.00000000          26.83600000

atom_frac            0.00000000           0.00000000           0.06250000 C 
atom_frac            0.00000000           0.00000000           0.18750000 C 
atom_frac            0.08333325           0.16666675           0.06250000 C 
atom_frac            0.16666675           0.08333325           0.18750000 C 
atom_frac            0.00000000           0.00000000           0.31250000 C 
atom_frac            0.00000000           0.00000000           0.43750000 C 
atom_frac            0.08333325           0.16666675           0.31250000 C 
atom_frac            0.16666675           0.08333325           0.43750000 C 
atom_frac            0.00000000           0.00000000           0.56250000 C 
atom_frac            0.00000000           0.00000000           0.68750000 C 
atom_frac            0.08333325           0.16666675           0.56250000 C 
atom_frac            0.16666675           0.08333325           0.68750000 C 
atom_frac            0.00000000           0.00000000           0.81250000 C 
atom_frac            0.00000000           0.00000000           0.93750000 C 
atom_frac            0.08333325           0.16666675           0.81250000 C 
atom_frac            0.16666675           0.08333325           0.93750000 C 
atom_frac            0.00000000           0.25000000           0.06250000 C 
atom_frac            0.00000000           0.25000000           0.18750000 C 
atom_frac            0.08333325           0.41666675           0.06250000 C 
atom_frac            0.16666675           0.33333325           0.18750000 C 
atom_frac            0.00000000           0.25000000           0.31250000 C 
atom_frac            0.00000000           0.25000000           0.43750000 C 
atom_frac            0.08333325           0.41666675           0.31250000 C 
atom_frac            0.16666675           0.33333325           0.43750000 C 
atom_frac            0.00000000           0.25000000           0.56250000 C 
atom_frac            0.00000000           0.25000000           0.68750000 C 
atom_frac            0.08333325           0.41666675           0.56250000 C 
atom_frac            0.16666675           0.33333325           0.68750000 C 
atom_frac            0.00000000           0.25000000           0.81250000 C 
atom_frac            0.00000000           0.25000000           0.93750000 C 
atom_frac            0.08333325           0.41666675           0.81250000 C 
atom_frac            0.16666675           0.33333325           0.93750000 C 
atom_frac            0.00000000           0.50000000           0.06250000 C 
atom_frac            0.00000000           0.50000000           0.18750000 C 
atom_frac            0.08333325           0.66666675           0.06250000 C 
atom_frac            0.16666675           0.58333325           0.18750000 C 
atom_frac            0.00000000           0.50000000           0.31250000 C 
atom_frac            0.00000000           0.50000000           0.43750000 C 
atom_frac            0.08333325           0.66666675           0.31250000 C 
atom_frac            0.16666675           0.58333325           0.43750000 C 
atom_frac            0.00000000           0.50000000           0.56250000 C 
atom_frac            0.00000000           0.50000000           0.68750000 C 
atom_frac            0.08333325           0.66666675           0.56250000 C 
atom_frac            0.16666675           0.58333325           0.68750000 C 
atom_frac            0.00000000           0.50000000           0.81250000 C 
atom_frac            0.00000000           0.50000000           0.93750000 C 
atom_frac            0.08333325           0.66666675           0.81250000 C 
atom_frac            0.16666675           0.58333325           0.93750000 C 
atom_frac            0.00000000           0.75000000           0.06250000 C 
atom_frac            0.00000000           0.75000000           0.18750000 C 
atom_frac            0.08333325           0.91666675           0.06250000 C 
atom_frac            0.16666675           0.83333325           0.18750000 C 
atom_frac            0.00000000           0.75000000           0.31250000 C 
atom_frac            0.00000000           0.75000000           0.43750000 C 
atom_frac            0.08333325           0.91666675           0.31250000 C 
atom_frac            0.16666675           0.83333325           0.43750000 C 
atom_frac            0.00000000           0.75000000           0.56250000 C 
atom_frac            0.00000000           0.75000000           0.68750000 C 
atom_frac            0.08333325           0.91666675           0.56250000 C 
atom_frac            0.16666675           0.83333325           0.68750000 C 
atom_frac            0.00000000           0.75000000           0.81250000 C 
atom_frac            0.00000000           0.75000000           0.93750000 C 
atom_frac            0.08333325           0.91666675           0.81250000 C 
atom_frac            0.16666675           0.83333325           0.93750000 C 
atom_frac            0.25000000           0.00000000           0.06250000 C 
atom_frac            0.25000000           0.00000000           0.18750000 C 
atom_frac            0.33333325           0.16666675           0.06250000 C 
atom_frac            0.41666675           0.08333325           0.18750000 C 
atom_frac            0.25000000           0.00000000           0.31250000 C 
atom_frac            0.25000000           0.00000000           0.43750000 C 
atom_frac            0.33333325           0.16666675           0.31250000 C 
atom_frac            0.41666675           0.08333325           0.43750000 C 
atom_frac            0.25000000           0.00000000           0.56250000 C 
atom_frac            0.25000000           0.00000000           0.68750000 C 
atom_frac            0.33333325           0.16666675           0.56250000 C 
atom_frac            0.41666675           0.08333325           0.68750000 C 
atom_frac            0.25000000           0.00000000           0.81250000 C 
atom_frac            0.25000000           0.00000000           0.93750000 C 
atom_frac            0.33333325           0.16666675           0.81250000 C 
atom_frac            0.41666675           0.08333325           0.93750000 C 
atom_frac            0.25000000           0.25000000           0.06250000 C 
atom_frac            0.25000000           0.25000000           0.18750000 C 
atom_frac            0.33333325           0.41666675           0.06250000 C 
atom_frac            0.41666675           0.33333325           0.18750000 C 
atom_frac            0.25000000           0.25000000           0.31250000 C 
atom_frac            0.25000000           0.25000000           0.43750000 C 
atom_frac            0.33333325           0.41666675           0.31250000 C 
atom_frac            0.41666675           0.33333325           0.43750000 C 
atom_frac            0.25000000           0.25000000           0.56250000 C 
atom_frac            0.25000000           0.25000000           0.68750000 C 
atom_frac            0.33333325           0.41666675           0.56250000 C 
atom_frac            0.41666675           0.33333325           0.68750000 C 
atom_frac            0.25000000           0.25000000           0.81250000 C 
atom_frac            0.25000000           0.25000000           0.93750000 C 
atom_frac            0.33333325           0.41666675           0.81250000 C 
atom_frac            0.41666675           0.33333325           0.93750000 C 
atom_frac            0.25000000           0.50000000           0.06250000 C 
atom_frac            0.25000000           0.50000000           0.18750000 C 
atom_frac            0.33333325           0.66666675           0.06250000 C 
atom_frac            0.41666675           0.58333325           0.18750000 C 
atom_frac            0.25000000           0.50000000           0.31250000 C 
atom_frac            0.25000000           0.50000000           0.43750000 C 
atom_frac            0.33333325           0.66666675           0.31250000 C 
atom_frac            0.41666675           0.58333325           0.43750000 C 
atom_frac            0.25000000           0.50000000           0.56250000 C 
atom_frac            0.25000000           0.50000000           0.68750000 C 
atom_frac            0.33333325           0.66666675           0.56250000 C 
atom_frac            0.41666675           0.58333325           0.68750000 C 
atom_frac            0.25000000           0.50000000           0.81250000 C 
atom_frac            0.25000000           0.50000000           0.93750000 C 
atom_frac            0.33333325           0.66666675           0.81250000 C 
atom_frac            0.41666675           0.58333325           0.93750000 C 
atom_frac            0.25000000           0.75000000           0.06250000 C 
atom_frac            0.25000000           0.75000000           0.18750000 C 
atom_frac            0.33333325           0.91666675           0.06250000 C 
atom_frac            0.41666675           0.83333325           0.18750000 C 
atom_frac            0.25000000           0.75000000           0.31250000 C 
atom_frac            0.25000000           0.75000000           0.43750000 C 
atom_frac            0.33333325           0.91666675           0.31250000 C 
atom_frac            0.41666675           0.83333325           0.43750000 C 
atom_frac            0.25000000           0.75000000           0.56250000 C 
atom_frac            0.25000000           0.75000000           0.68750000 C 
atom_frac            0.33333325           0.91666675           0.56250000 C 
atom_frac            0.41666675           0.83333325           0.68750000 C 
atom_frac            0.25000000           0.75000000           0.81250000 C 
atom_frac            0.25000000           0.75000000           0.93750000 C 
atom_frac            0.33333325           0.91666675           0.81250000 C 
atom_frac            0.41666675           0.83333325           0.93750000 C 
atom_frac            0.50000000           0.00000000           0.06250000 C 
atom_frac            0.50000000           0.00000000           0.18750000 C 
atom_frac            0.58333325           0.16666675           0.06250000 C 
atom_frac            0.66666675           0.08333325           0.18750000 C 
atom_frac            0.50000000           0.00000000           0.31250000 C 
atom_frac            0.50000000           0.00000000           0.43750000 C 
atom_frac            0.58333325           0.16666675           0.31250000 C 
atom_frac            0.66666675           0.08333325           0.43750000 C 
atom_frac            0.50000000           0.00000000           0.56250000 C 
atom_frac            0.50000000           0.00000000           0.68750000 C 
atom_frac            0.58333325           0.16666675           0.56250000 C 
atom_frac            0.66666675           0.08333325           0.68750000 C 
atom_frac            0.50000000           0.00000000           0.81250000 C 
atom_frac            0.50000000           0.00000000           0.93750000 C 
atom_frac            0.58333325           0.16666675           0.81250000 C 
atom_frac            0.66666675           0.08333325           0.93750000 C 
atom_frac            0.50000000           0.25000000           0.06250000 C 
atom_frac            0.50000000           0.25000000           0.18750000 C 
atom_frac            0.58333325           0.41666675           0.06250000 C 
atom_frac            0.66666675           0.33333325           0.18750000 C 
atom_frac            0.50000000           0.25000000           0.31250000 C 
atom_frac            0.50000000           0.25000000           0.43750000 C 
atom_frac            0.58333325           0.41666675           0.31250000 C 
atom_frac            0.66666675           0.33333325           0.43750000 C 
atom_frac            0.50000000           0.25000000           0.56250000 C 
atom_frac            0.50000000           0.25000000           0.68750000 C 
atom_frac            0.58333325           0.41666675           0.56250000 C 
atom_frac            0.66666675           0.33333325           0.68750000 C 
atom_frac            0.50000000           0.25000000           0.81250000 C 
atom_frac            0.50000000           0.25000000           0.93750000 C 
atom_frac            0.58333325           0.41666675           0.81250000 C 
atom_frac            0.66666675           0.33333325           0.93750000 C 
atom_frac            0.50000000           0.50000000           0.06250000 C 
atom_frac            0.50000000           0.50000000           0.18750000 C 
atom_frac            0.58333325           0.66666675           0.06250000 C 
atom_frac            0.66666675           0.58333325           0.18750000 C 
atom_frac            0.50000000           0.50000000           0.31250000 C 
atom_frac            0.50000000           0.50000000           0.43750000 C 
atom_frac            0.58333325           0.66666675           0.31250000 C 
atom_frac            0.66666675           0.58333325           0.43750000 C 
atom_frac            0.50000000           0.50000000           0.56250000 C 
atom_frac            0.50000000           0.50000000           0.68750000 C 
atom_frac            0.58333325           0.66666675           0.56250000 C 
atom_frac            0.66666675           0.58333325           0.68750000 C 
atom_frac            0.50000000           0.50000000           0.81250000 C 
atom_frac            0.50000000           0.50000000           0.93750000 C 
atom_frac            0.58333325           0.66666675           0.81250000 C 
atom_frac            0.66666675           0.58333325           0.93750000 C 
atom_frac            0.50000000           0.75000000           0.06250000 C 
atom_frac            0.50000000           0.75000000           0.18750000 C 
atom_frac            0.58333325           0.91666675           0.06250000 C 
atom_frac            0.66666675           0.83333325           0.18750000 C 
atom_frac            0.50000000           0.75000000           0.31250000 C 
atom_frac            0.50000000           0.75000000           0.43750000 C 
atom_frac            0.58333325           0.91666675           0.31250000 C 
atom_frac            0.66666675           0.83333325           0.43750000 C 
atom_frac            0.50000000           0.75000000           0.56250000 C 
atom_frac            0.50000000           0.75000000           0.68750000 C 
atom_frac            0.58333325           0.91666675           0.56250000 C 
atom_frac            0.66666675           0.83333325           0.68750000 C 
atom_frac            0.50000000           0.75000000           0.81250000 C 
atom_frac            0.50000000           0.75000000           0.93750000 C 
atom_frac            0.58333325           0.91666675           0.81250000 C 
atom_frac            0.66666675           0.83333325           0.93750000 C 
atom_frac            0.75000000           0.00000000           0.06250000 C 
atom_frac            0.75000000           0.00000000           0.18750000 C 
atom_frac            0.83333325           0.16666675           0.06250000 C 
atom_frac            0.91666675           0.08333325           0.18750000 C 
atom_frac            0.75000000           0.00000000           0.31250000 C 
atom_frac            0.75000000           0.00000000           0.43750000 C 
atom_frac            0.83333325           0.16666675           0.31250000 C 
atom_frac            0.91666675           0.08333325           0.43750000 C 
atom_frac            0.75000000           0.00000000           0.56250000 C 
atom_frac            0.75000000           0.00000000           0.68750000 C 
atom_frac            0.83333325           0.16666675           0.56250000 C 
atom_frac            0.91666675           0.08333325           0.68750000 C 
atom_frac            0.75000000           0.00000000           0.81250000 C 
atom_frac            0.75000000           0.00000000           0.93750000 C 
atom_frac            0.83333325           0.16666675           0.81250000 C 
atom_frac            0.91666675           0.08333325           0.93750000 C 
atom_frac            0.75000000           0.25000000           0.06250000 C 
atom_frac            0.75000000           0.25000000           0.18750000 C 
atom_frac            0.83333325           0.41666675           0.06250000 C 
atom_frac            0.91666675           0.33333325           0.18750000 C 
atom_frac            0.75000000           0.25000000           0.31250000 C 
atom_frac            0.75000000           0.25000000           0.43750000 C 
atom_frac            0.83333325           0.41666675           0.31250000 C 
atom_frac            0.91666675           0.33333325           0.43750000 C 
atom_frac            0.75000000           0.25000000           0.56250000 C 
atom_frac            0.75000000           0.25000000           0.68750000 C 
atom_frac            0.83333325           0.41666675           0.56250000 C 
atom_frac            0.91666675           0.33333325           0.68750000 C 
atom_frac            0.75000000           0.25000000           0.81250000 C 
atom_frac            0.75000000           0.25000000           0.93750000 C 
atom_frac            0.83333325           0.41666675           0.81250000 C 
atom_frac            0.91666675           0.33333325           0.93750000 C 
atom_frac            0.75000000           0.50000000           0.06250000 C 
atom_frac            0.75000000           0.50000000           0.18750000 C 
atom_frac            0.83333325           0.66666675           0.06250000 C 
atom_frac            0.91666675           0.58333325           0.18750000 C 
atom_frac            0.75000000           0.50000000           0.31250000 C 
atom_frac            0.75000000           0.50000000           0.43750000 C 
atom_frac            0.83333325           0.66666675           0.31250000 C 
atom_frac            0.91666675           0.58333325           0.43750000 C 
atom_frac            0.75000000           0.50000000           0.56250000 C 
atom_frac            0.75000000           0.50000000           0.68750000 C 
atom_frac            0.83333325           0.66666675           0.56250000 C 
atom_frac            0.91666675           0.58333325           0.68750000 C 
atom_frac            0.75000000           0.50000000           0.81250000 C 
atom_frac            0.75000000           0.50000000           0.93750000 C 
atom_frac            0.83333325           0.66666675           0.81250000 C 
atom_frac            0.91666675           0.58333325           0.93750000 C 
atom_frac            0.75000000           0.75000000           0.06250000 C 
atom_frac            0.75000000           0.75000000           0.18750000 C 
atom_frac            0.83333325           0.91666675           0.06250000 C 
atom_frac            0.91666675           0.83333325           0.18750000 C 
atom_frac            0.75000000           0.75000000           0.31250000 C 
atom_frac            0.75000000           0.75000000           0.43750000 C 
atom_frac            0.83333325           0.91666675           0.31250000 C 
atom_frac            0.91666675           0.83333325           0.43750000 C 
atom_frac            0.75000000           0.75000000           0.56250000 C 
atom_frac            0.75000000           0.75000000           0.68750000 C 
atom_frac            0.83333325           0.91666675           0.56250000 C 
atom_frac            0.91666675           0.83333325           0.68750000 C 
atom_frac            0.75000000           0.75000000           0.81250000 C 
atom_frac            0.75000000           0.75000000           0.93750000 C 
atom_frac            0.83333325           0.91666675           0.81250000 C 
atom_frac            0.91666675           0.83333325           0.93750000 C 
