lattice_vector           11.07540000         -19.18314000           0.00000000
lattice_vector           11.07540000          19.18314000           0.00000000
lattice_vector            0.00000000           0.00000000          60.38100000

atom_frac            0.00000000           0.00000000           0.02777778 C 
atom_frac            0.00000000           0.00000000           0.08333333 C 
atom_frac            0.03703700           0.07407411           0.02777778 C 
atom_frac            0.07407411           0.03703700           0.08333333 C 
atom_frac            0.00000000           0.00000000           0.13888889 C 
atom_frac            0.00000000           0.00000000           0.19444444 C 
atom_frac            0.03703700           0.07407411           0.13888889 C 
atom_frac            0.07407411           0.03703700           0.19444444 C 
atom_frac            0.00000000           0.00000000           0.25000000 C 
atom_frac            0.00000000           0.00000000           0.30555556 C 
atom_frac            0.03703700           0.07407411           0.25000000 C 
atom_frac            0.07407411           0.03703700           0.30555556 C 
atom_frac            0.00000000           0.00000000           0.36111111 C 
atom_frac            0.00000000           0.00000000           0.41666667 C 
atom_frac            0.03703700           0.07407411           0.36111111 C 
atom_frac            0.07407411           0.03703700           0.41666667 C 
atom_frac            0.00000000           0.00000000           0.47222222 C 
atom_frac            0.00000000           0.00000000           0.52777778 C 
atom_frac            0.03703700           0.07407411           0.47222222 C 
atom_frac            0.07407411           0.03703700           0.52777778 C 
atom_frac            0.00000000           0.00000000           0.58333333 C 
atom_frac            0.00000000           0.00000000           0.63888889 C 
atom_frac            0.03703700           0.07407411           0.58333333 C 
atom_frac            0.07407411           0.03703700           0.63888889 C 
atom_frac            0.00000000           0.00000000           0.69444444 C 
atom_frac            0.00000000           0.00000000           0.75000000 C 
atom_frac            0.03703700           0.07407411           0.69444444 C 
atom_frac            0.07407411           0.03703700           0.75000000 C 
atom_frac            0.00000000           0.00000000           0.80555556 C 
atom_frac            0.00000000           0.00000000           0.86111111 C 
atom_frac            0.03703700           0.07407411           0.80555556 C 
atom_frac            0.07407411           0.03703700           0.86111111 C 
atom_frac            0.00000000           0.00000000           0.91666667 C 
atom_frac            0.00000000           0.00000000           0.97222222 C 
atom_frac            0.03703700           0.07407411           0.91666667 C 
atom_frac            0.07407411           0.03703700           0.97222222 C 
atom_frac            0.00000000           0.11111111           0.02777778 C 
atom_frac            0.00000000           0.11111111           0.08333333 C 
atom_frac            0.03703700           0.18518522           0.02777778 C 
atom_frac            0.07407411           0.14814811           0.08333333 C 
atom_frac            0.00000000           0.11111111           0.13888889 C 
atom_frac            0.00000000           0.11111111           0.19444444 C 
atom_frac            0.03703700           0.18518522           0.13888889 C 
atom_frac            0.07407411           0.14814811           0.19444444 C 
atom_frac            0.00000000           0.11111111           0.25000000 C 
atom_frac            0.00000000           0.11111111           0.30555556 C 
atom_frac            0.03703700           0.18518522           0.25000000 C 
atom_frac            0.07407411           0.14814811           0.30555556 C 
atom_frac            0.00000000           0.11111111           0.36111111 C 
atom_frac            0.00000000           0.11111111           0.41666667 C 
atom_frac            0.03703700           0.18518522           0.36111111 C 
atom_frac            0.07407411           0.14814811           0.41666667 C 
atom_frac            0.00000000           0.11111111           0.47222222 C 
atom_frac            0.00000000           0.11111111           0.52777778 C 
atom_frac            0.03703700           0.18518522           0.47222222 C 
atom_frac            0.07407411           0.14814811           0.52777778 C 
atom_frac            0.00000000           0.11111111           0.58333333 C 
atom_frac            0.00000000           0.11111111           0.63888889 C 
atom_frac            0.03703700           0.18518522           0.58333333 C 
atom_frac            0.07407411           0.14814811           0.63888889 C 
atom_frac            0.00000000           0.11111111           0.69444444 C 
atom_frac            0.00000000           0.11111111           0.75000000 C 
atom_frac            0.03703700           0.18518522           0.69444444 C 
atom_frac            0.07407411           0.14814811           0.75000000 C 
atom_frac            0.00000000           0.11111111           0.80555556 C 
atom_frac            0.00000000           0.11111111           0.86111111 C 
atom_frac            0.03703700           0.18518522           0.80555556 C 
atom_frac            0.07407411           0.14814811           0.86111111 C 
atom_frac            0.00000000           0.11111111           0.91666667 C 
atom_frac            0.00000000           0.11111111           0.97222222 C 
atom_frac            0.03703700           0.18518522           0.91666667 C 
atom_frac            0.07407411           0.14814811           0.97222222 C 
atom_frac            0.00000000           0.22222222           0.02777778 C 
atom_frac            0.00000000           0.22222222           0.08333333 C 
atom_frac            0.03703700           0.29629633           0.02777778 C 
atom_frac            0.07407411           0.25925922           0.08333333 C 
atom_frac            0.00000000           0.22222222           0.13888889 C 
atom_frac            0.00000000           0.22222222           0.19444444 C 
atom_frac            0.03703700           0.29629633           0.13888889 C 
atom_frac            0.07407411           0.25925922           0.19444444 C 
atom_frac            0.00000000           0.22222222           0.25000000 C 
atom_frac            0.00000000           0.22222222           0.30555556 C 
atom_frac            0.03703700           0.29629633           0.25000000 C 
atom_frac            0.07407411           0.25925922           0.30555556 C 
atom_frac            0.00000000           0.22222222           0.36111111 C 
atom_frac            0.00000000           0.22222222           0.41666667 C 
atom_frac            0.03703700           0.29629633           0.36111111 C 
atom_frac            0.07407411           0.25925922           0.41666667 C 
atom_frac            0.00000000           0.22222222           0.47222222 C 
atom_frac            0.00000000           0.22222222           0.52777778 C 
atom_frac            0.03703700           0.29629633           0.47222222 C 
atom_frac            0.07407411           0.25925922           0.52777778 C 
atom_frac            0.00000000           0.22222222           0.58333333 C 
atom_frac            0.00000000           0.22222222           0.63888889 C 
atom_frac            0.03703700           0.29629633           0.58333333 C 
atom_frac            0.07407411           0.25925922           0.63888889 C 
atom_frac            0.00000000           0.22222222           0.69444444 C 
atom_frac            0.00000000           0.22222222           0.75000000 C 
atom_frac            0.03703700           0.29629633           0.69444444 C 
atom_frac            0.07407411           0.25925922           0.75000000 C 
atom_frac            0.00000000           0.22222222           0.80555556 C 
atom_frac            0.00000000           0.22222222           0.86111111 C 
atom_frac            0.03703700           0.29629633           0.80555556 C 
atom_frac            0.07407411           0.25925922           0.86111111 C 
atom_frac            0.00000000           0.22222222           0.91666667 C 
atom_frac            0.00000000           0.22222222           0.97222222 C 
atom_frac            0.03703700           0.29629633           0.91666667 C 
atom_frac            0.07407411           0.25925922           0.97222222 C 
atom_frac            0.00000000           0.33333333           0.02777778 C 
atom_frac            0.00000000           0.33333333           0.08333333 C 
atom_frac            0.03703700           0.40740744           0.02777778 C 
atom_frac            0.07407411           0.37037033           0.08333333 C 
atom_frac            0.00000000           0.33333333           0.13888889 C 
atom_frac            0.00000000           0.33333333           0.19444444 C 
atom_frac            0.03703700           0.40740744           0.13888889 C 
atom_frac            0.07407411           0.37037033           0.19444444 C 
atom_frac            0.00000000           0.33333333           0.25000000 C 
atom_frac            0.00000000           0.33333333           0.30555556 C 
atom_frac            0.03703700           0.40740744           0.25000000 C 
atom_frac            0.07407411           0.37037033           0.30555556 C 
atom_frac            0.00000000           0.33333333           0.36111111 C 
atom_frac            0.00000000           0.33333333           0.41666667 C 
atom_frac            0.03703700           0.40740744           0.36111111 C 
atom_frac            0.07407411           0.37037033           0.41666667 C 
atom_frac            0.00000000           0.33333333           0.47222222 C 
atom_frac            0.00000000           0.33333333           0.52777778 C 
atom_frac            0.03703700           0.40740744           0.47222222 C 
atom_frac            0.07407411           0.37037033           0.52777778 C 
atom_frac            0.00000000           0.33333333           0.58333333 C 
atom_frac            0.00000000           0.33333333           0.63888889 C 
atom_frac            0.03703700           0.40740744           0.58333333 C 
atom_frac            0.07407411           0.37037033           0.63888889 C 
atom_frac            0.00000000           0.33333333           0.69444444 C 
atom_frac            0.00000000           0.33333333           0.75000000 C 
atom_frac            0.03703700           0.40740744           0.69444444 C 
atom_frac            0.07407411           0.37037033           0.75000000 C 
atom_frac            0.00000000           0.33333333           0.80555556 C 
atom_frac            0.00000000           0.33333333           0.86111111 C 
atom_frac            0.03703700           0.40740744           0.80555556 C 
atom_frac            0.07407411           0.37037033           0.86111111 C 
atom_frac            0.00000000           0.33333333           0.91666667 C 
atom_frac            0.00000000           0.33333333           0.97222222 C 
atom_frac            0.03703700           0.40740744           0.91666667 C 
atom_frac            0.07407411           0.37037033           0.97222222 C 
atom_frac            0.00000000           0.44444444           0.02777778 C 
atom_frac            0.00000000           0.44444444           0.08333333 C 
atom_frac            0.03703700           0.51851856           0.02777778 C 
atom_frac            0.07407411           0.48148144           0.08333333 C 
atom_frac            0.00000000           0.44444444           0.13888889 C 
atom_frac            0.00000000           0.44444444           0.19444444 C 
atom_frac            0.03703700           0.51851856           0.13888889 C 
atom_frac            0.07407411           0.48148144           0.19444444 C 
atom_frac            0.00000000           0.44444444           0.25000000 C 
atom_frac            0.00000000           0.44444444           0.30555556 C 
atom_frac            0.03703700           0.51851856           0.25000000 C 
atom_frac            0.07407411           0.48148144           0.30555556 C 
atom_frac            0.00000000           0.44444444           0.36111111 C 
atom_frac            0.00000000           0.44444444           0.41666667 C 
atom_frac            0.03703700           0.51851856           0.36111111 C 
atom_frac            0.07407411           0.48148144           0.41666667 C 
atom_frac            0.00000000           0.44444444           0.47222222 C 
atom_frac            0.00000000           0.44444444           0.52777778 C 
atom_frac            0.03703700           0.51851856           0.47222222 C 
atom_frac            0.07407411           0.48148144           0.52777778 C 
atom_frac            0.00000000           0.44444444           0.58333333 C 
atom_frac            0.00000000           0.44444444           0.63888889 C 
atom_frac            0.03703700           0.51851856           0.58333333 C 
atom_frac            0.07407411           0.48148144           0.63888889 C 
atom_frac            0.00000000           0.44444444           0.69444444 C 
atom_frac            0.00000000           0.44444444           0.75000000 C 
atom_frac            0.03703700           0.51851856           0.69444444 C 
atom_frac            0.07407411           0.48148144           0.75000000 C 
atom_frac            0.00000000           0.44444444           0.80555556 C 
atom_frac            0.00000000           0.44444444           0.86111111 C 
atom_frac            0.03703700           0.51851856           0.80555556 C 
atom_frac            0.07407411           0.48148144           0.86111111 C 
atom_frac            0.00000000           0.44444444           0.91666667 C 
atom_frac            0.00000000           0.44444444           0.97222222 C 
atom_frac            0.03703700           0.51851856           0.91666667 C 
atom_frac            0.07407411           0.48148144           0.97222222 C 
atom_frac            0.00000000           0.55555556           0.02777778 C 
atom_frac            0.00000000           0.55555556           0.08333333 C 
atom_frac            0.03703700           0.62962967           0.02777778 C 
atom_frac            0.07407411           0.59259256           0.08333333 C 
atom_frac            0.00000000           0.55555556           0.13888889 C 
atom_frac            0.00000000           0.55555556           0.19444444 C 
atom_frac            0.03703700           0.62962967           0.13888889 C 
atom_frac            0.07407411           0.59259256           0.19444444 C 
atom_frac            0.00000000           0.55555556           0.25000000 C 
atom_frac            0.00000000           0.55555556           0.30555556 C 
atom_frac            0.03703700           0.62962967           0.25000000 C 
atom_frac            0.07407411           0.59259256           0.30555556 C 
atom_frac            0.00000000           0.55555556           0.36111111 C 
atom_frac            0.00000000           0.55555556           0.41666667 C 
atom_frac            0.03703700           0.62962967           0.36111111 C 
atom_frac            0.07407411           0.59259256           0.41666667 C 
atom_frac            0.00000000           0.55555556           0.47222222 C 
atom_frac            0.00000000           0.55555556           0.52777778 C 
atom_frac            0.03703700           0.62962967           0.47222222 C 
atom_frac            0.07407411           0.59259256           0.52777778 C 
atom_frac            0.00000000           0.55555556           0.58333333 C 
atom_frac            0.00000000           0.55555556           0.63888889 C 
atom_frac            0.03703700           0.62962967           0.58333333 C 
atom_frac            0.07407411           0.59259256           0.63888889 C 
atom_frac            0.00000000           0.55555556           0.69444444 C 
atom_frac            0.00000000           0.55555556           0.75000000 C 
atom_frac            0.03703700           0.62962967           0.69444444 C 
atom_frac            0.07407411           0.59259256           0.75000000 C 
atom_frac            0.00000000           0.55555556           0.80555556 C 
atom_frac            0.00000000           0.55555556           0.86111111 C 
atom_frac            0.03703700           0.62962967           0.80555556 C 
atom_frac            0.07407411           0.59259256           0.86111111 C 
atom_frac            0.00000000           0.55555556           0.91666667 C 
atom_frac            0.00000000           0.55555556           0.97222222 C 
atom_frac            0.03703700           0.62962967           0.91666667 C 
atom_frac            0.07407411           0.59259256           0.97222222 C 
atom_frac            0.00000000           0.66666667           0.02777778 C 
atom_frac            0.00000000           0.66666667           0.08333333 C 
atom_frac            0.03703700           0.74074078           0.02777778 C 
atom_frac            0.07407411           0.70370367           0.08333333 C 
atom_frac            0.00000000           0.66666667           0.13888889 C 
atom_frac            0.00000000           0.66666667           0.19444444 C 
atom_frac            0.03703700           0.74074078           0.13888889 C 
atom_frac            0.07407411           0.70370367           0.19444444 C 
atom_frac            0.00000000           0.66666667           0.25000000 C 
atom_frac            0.00000000           0.66666667           0.30555556 C 
atom_frac            0.03703700           0.74074078           0.25000000 C 
atom_frac            0.07407411           0.70370367           0.30555556 C 
atom_frac            0.00000000           0.66666667           0.36111111 C 
atom_frac            0.00000000           0.66666667           0.41666667 C 
atom_frac            0.03703700           0.74074078           0.36111111 C 
atom_frac            0.07407411           0.70370367           0.41666667 C 
atom_frac            0.00000000           0.66666667           0.47222222 C 
atom_frac            0.00000000           0.66666667           0.52777778 C 
atom_frac            0.03703700           0.74074078           0.47222222 C 
atom_frac            0.07407411           0.70370367           0.52777778 C 
atom_frac            0.00000000           0.66666667           0.58333333 C 
atom_frac            0.00000000           0.66666667           0.63888889 C 
atom_frac            0.03703700           0.74074078           0.58333333 C 
atom_frac            0.07407411           0.70370367           0.63888889 C 
atom_frac            0.00000000           0.66666667           0.69444444 C 
atom_frac            0.00000000           0.66666667           0.75000000 C 
atom_frac            0.03703700           0.74074078           0.69444444 C 
atom_frac            0.07407411           0.70370367           0.75000000 C 
atom_frac            0.00000000           0.66666667           0.80555556 C 
atom_frac            0.00000000           0.66666667           0.86111111 C 
atom_frac            0.03703700           0.74074078           0.80555556 C 
atom_frac            0.07407411           0.70370367           0.86111111 C 
atom_frac            0.00000000           0.66666667           0.91666667 C 
atom_frac            0.00000000           0.66666667           0.97222222 C 
atom_frac            0.03703700           0.74074078           0.91666667 C 
atom_frac            0.07407411           0.70370367           0.97222222 C 
atom_frac            0.00000000           0.77777778           0.02777778 C 
atom_frac            0.00000000           0.77777778           0.08333333 C 
atom_frac            0.03703700           0.85185189           0.02777778 C 
atom_frac            0.07407411           0.81481478           0.08333333 C 
atom_frac            0.00000000           0.77777778           0.13888889 C 
atom_frac            0.00000000           0.77777778           0.19444444 C 
atom_frac            0.03703700           0.85185189           0.13888889 C 
atom_frac            0.07407411           0.81481478           0.19444444 C 
atom_frac            0.00000000           0.77777778           0.25000000 C 
atom_frac            0.00000000           0.77777778           0.30555556 C 
atom_frac            0.03703700           0.85185189           0.25000000 C 
atom_frac            0.07407411           0.81481478           0.30555556 C 
atom_frac            0.00000000           0.77777778           0.36111111 C 
atom_frac            0.00000000           0.77777778           0.41666667 C 
atom_frac            0.03703700           0.85185189           0.36111111 C 
atom_frac            0.07407411           0.81481478           0.41666667 C 
atom_frac            0.00000000           0.77777778           0.47222222 C 
atom_frac            0.00000000           0.77777778           0.52777778 C 
atom_frac            0.03703700           0.85185189           0.47222222 C 
atom_frac            0.07407411           0.81481478           0.52777778 C 
atom_frac            0.00000000           0.77777778           0.58333333 C 
atom_frac            0.00000000           0.77777778           0.63888889 C 
atom_frac            0.03703700           0.85185189           0.58333333 C 
atom_frac            0.07407411           0.81481478           0.63888889 C 
atom_frac            0.00000000           0.77777778           0.69444444 C 
atom_frac            0.00000000           0.77777778           0.75000000 C 
atom_frac            0.03703700           0.85185189           0.69444444 C 
atom_frac            0.07407411           0.81481478           0.75000000 C 
atom_frac            0.00000000           0.77777778           0.80555556 C 
atom_frac            0.00000000           0.77777778           0.86111111 C 
atom_frac            0.03703700           0.85185189           0.80555556 C 
atom_frac            0.07407411           0.81481478           0.86111111 C 
atom_frac            0.00000000           0.77777778           0.91666667 C 
atom_frac            0.00000000           0.77777778           0.97222222 C 
atom_frac            0.03703700           0.85185189           0.91666667 C 
atom_frac            0.07407411           0.81481478           0.97222222 C 
atom_frac            0.00000000           0.88888889           0.02777778 C 
atom_frac            0.00000000           0.88888889           0.08333333 C 
atom_frac            0.03703700           0.96296300           0.02777778 C 
atom_frac            0.07407411           0.92592589           0.08333333 C 
atom_frac            0.00000000           0.88888889           0.13888889 C 
atom_frac            0.00000000           0.88888889           0.19444444 C 
atom_frac            0.03703700           0.96296300           0.13888889 C 
atom_frac            0.07407411           0.92592589           0.19444444 C 
atom_frac            0.00000000           0.88888889           0.25000000 C 
atom_frac            0.00000000           0.88888889           0.30555556 C 
atom_frac            0.03703700           0.96296300           0.25000000 C 
atom_frac            0.07407411           0.92592589           0.30555556 C 
atom_frac            0.00000000           0.88888889           0.36111111 C 
atom_frac            0.00000000           0.88888889           0.41666667 C 
atom_frac            0.03703700           0.96296300           0.36111111 C 
atom_frac            0.07407411           0.92592589           0.41666667 C 
atom_frac            0.00000000           0.88888889           0.47222222 C 
atom_frac            0.00000000           0.88888889           0.52777778 C 
atom_frac            0.03703700           0.96296300           0.47222222 C 
atom_frac            0.07407411           0.92592589           0.52777778 C 
atom_frac            0.00000000           0.88888889           0.58333333 C 
atom_frac            0.00000000           0.88888889           0.63888889 C 
atom_frac            0.03703700           0.96296300           0.58333333 C 
atom_frac            0.07407411           0.92592589           0.63888889 C 
atom_frac            0.00000000           0.88888889           0.69444444 C 
atom_frac            0.00000000           0.88888889           0.75000000 C 
atom_frac            0.03703700           0.96296300           0.69444444 C 
atom_frac            0.07407411           0.92592589           0.75000000 C 
atom_frac            0.00000000           0.88888889           0.80555556 C 
atom_frac            0.00000000           0.88888889           0.86111111 C 
atom_frac            0.03703700           0.96296300           0.80555556 C 
atom_frac            0.07407411           0.92592589           0.86111111 C 
atom_frac            0.00000000           0.88888889           0.91666667 C 
atom_frac            0.00000000           0.88888889           0.97222222 C 
atom_frac            0.03703700           0.96296300           0.91666667 C 
atom_frac            0.07407411           0.92592589           0.97222222 C 
atom_frac            0.11111111           0.00000000           0.02777778 C 
atom_frac            0.11111111           0.00000000           0.08333333 C 
atom_frac            0.14814811           0.07407411           0.02777778 C 
atom_frac            0.18518522           0.03703700           0.08333333 C 
atom_frac            0.11111111           0.00000000           0.13888889 C 
atom_frac            0.11111111           0.00000000           0.19444444 C 
atom_frac            0.14814811           0.07407411           0.13888889 C 
atom_frac            0.18518522           0.03703700           0.19444444 C 
atom_frac            0.11111111           0.00000000           0.25000000 C 
atom_frac            0.11111111           0.00000000           0.30555556 C 
atom_frac            0.14814811           0.07407411           0.25000000 C 
atom_frac            0.18518522           0.03703700           0.30555556 C 
atom_frac            0.11111111           0.00000000           0.36111111 C 
atom_frac            0.11111111           0.00000000           0.41666667 C 
atom_frac            0.14814811           0.07407411           0.36111111 C 
atom_frac            0.18518522           0.03703700           0.41666667 C 
atom_frac            0.11111111           0.00000000           0.47222222 C 
atom_frac            0.11111111           0.00000000           0.52777778 C 
atom_frac            0.14814811           0.07407411           0.47222222 C 
atom_frac            0.18518522           0.03703700           0.52777778 C 
atom_frac            0.11111111           0.00000000           0.58333333 C 
atom_frac            0.11111111           0.00000000           0.63888889 C 
atom_frac            0.14814811           0.07407411           0.58333333 C 
atom_frac            0.18518522           0.03703700           0.63888889 C 
atom_frac            0.11111111           0.00000000           0.69444444 C 
atom_frac            0.11111111           0.00000000           0.75000000 C 
atom_frac            0.14814811           0.07407411           0.69444444 C 
atom_frac            0.18518522           0.03703700           0.75000000 C 
atom_frac            0.11111111           0.00000000           0.80555556 C 
atom_frac            0.11111111           0.00000000           0.86111111 C 
atom_frac            0.14814811           0.07407411           0.80555556 C 
atom_frac            0.18518522           0.03703700           0.86111111 C 
atom_frac            0.11111111           0.00000000           0.91666667 C 
atom_frac            0.11111111           0.00000000           0.97222222 C 
atom_frac            0.14814811           0.07407411           0.91666667 C 
atom_frac            0.18518522           0.03703700           0.97222222 C 
atom_frac            0.11111111           0.11111111           0.02777778 C 
atom_frac            0.11111111           0.11111111           0.08333333 C 
atom_frac            0.14814811           0.18518522           0.02777778 C 
atom_frac            0.18518522           0.14814811           0.08333333 C 
atom_frac            0.11111111           0.11111111           0.13888889 C 
atom_frac            0.11111111           0.11111111           0.19444444 C 
atom_frac            0.14814811           0.18518522           0.13888889 C 
atom_frac            0.18518522           0.14814811           0.19444444 C 
atom_frac            0.11111111           0.11111111           0.25000000 C 
atom_frac            0.11111111           0.11111111           0.30555556 C 
atom_frac            0.14814811           0.18518522           0.25000000 C 
atom_frac            0.18518522           0.14814811           0.30555556 C 
atom_frac            0.11111111           0.11111111           0.36111111 C 
atom_frac            0.11111111           0.11111111           0.41666667 C 
atom_frac            0.14814811           0.18518522           0.36111111 C 
atom_frac            0.18518522           0.14814811           0.41666667 C 
atom_frac            0.11111111           0.11111111           0.47222222 C 
atom_frac            0.11111111           0.11111111           0.52777778 C 
atom_frac            0.14814811           0.18518522           0.47222222 C 
atom_frac            0.18518522           0.14814811           0.52777778 C 
atom_frac            0.11111111           0.11111111           0.58333333 C 
atom_frac            0.11111111           0.11111111           0.63888889 C 
atom_frac            0.14814811           0.18518522           0.58333333 C 
atom_frac            0.18518522           0.14814811           0.63888889 C 
atom_frac            0.11111111           0.11111111           0.69444444 C 
atom_frac            0.11111111           0.11111111           0.75000000 C 