lattice_vector           18.45900000         -31.97190000           0.00000000
lattice_vector           18.45900000          31.97190000           0.00000000
lattice_vector            0.00000000           0.00000000         100.63500000

atom_frac            0.00000000           0.00000000           0.01666667 C 
atom_frac            0.00000000           0.00000000           0.05000000 C 
atom_frac            0.02222220           0.04444447           0.01666667 C 
atom_frac            0.04444447           0.02222220           0.05000000 C 
atom_frac            0.00000000           0.00000000           0.08333333 C 
atom_frac            0.00000000           0.00000000           0.11666667 C 
atom_frac            0.02222220           0.04444447           0.08333333 C 
atom_frac            0.04444447           0.02222220           0.11666667 C 
atom_frac            0.00000000           0.00000000           0.15000000 C 
atom_frac            0.00000000           0.00000000           0.18333333 C 
atom_frac            0.02222220           0.04444447           0.15000000 C 
atom_frac            0.04444447           0.02222220           0.18333333 C 
atom_frac            0.00000000           0.00000000           0.21666667 C 
atom_frac            0.00000000           0.00000000           0.25000000 C 
atom_frac            0.02222220           0.04444447           0.21666667 C 
atom_frac            0.04444447           0.02222220           0.25000000 C 
atom_frac            0.00000000           0.00000000           0.28333333 C 
atom_frac            0.00000000           0.00000000           0.31666667 C 
atom_frac            0.02222220           0.04444447           0.28333333 C 
atom_frac            0.04444447           0.02222220           0.31666667 C 
atom_frac            0.00000000           0.00000000           0.35000000 C 
atom_frac            0.00000000           0.00000000           0.38333333 C 
atom_frac            0.02222220           0.04444447           0.35000000 C 
atom_frac            0.04444447           0.02222220           0.38333333 C 
atom_frac            0.00000000           0.00000000           0.41666667 C 
atom_frac            0.00000000           0.00000000           0.45000000 C 
atom_frac            0.02222220           0.04444447           0.41666667 C 
atom_frac            0.04444447           0.02222220           0.45000000 C 
atom_frac            0.00000000           0.00000000           0.48333333 C 
atom_frac            0.00000000           0.00000000           0.51666667 C 
atom_frac            0.02222220           0.04444447           0.48333333 C 
atom_frac            0.04444447           0.02222220           0.51666667 C 
atom_frac            0.00000000           0.00000000           0.55000000 C 
atom_frac            0.00000000           0.00000000           0.58333333 C 
atom_frac            0.02222220           0.04444447           0.55000000 C 
atom_frac            0.04444447           0.02222220           0.58333333 C 
atom_frac            0.00000000           0.00000000           0.61666667 C 
atom_frac            0.00000000           0.00000000           0.65000000 C 
atom_frac            0.02222220           0.04444447           0.61666667 C 
atom_frac            0.04444447           0.02222220           0.65000000 C 
atom_frac            0.00000000           0.00000000           0.68333333 C 
atom_frac            0.00000000           0.00000000           0.71666667 C 
atom_frac            0.02222220           0.04444447           0.68333333 C 
atom_frac            0.04444447           0.02222220           0.71666667 C 
atom_frac            0.00000000           0.00000000           0.75000000 C 
atom_frac            0.00000000           0.00000000           0.78333333 C 
atom_frac            0.02222220           0.04444447           0.75000000 C 
atom_frac            0.04444447           0.02222220           0.78333333 C 
atom_frac            0.00000000           0.00000000           0.81666667 C 
atom_frac            0.00000000           0.00000000           0.85000000 C 
atom_frac            0.02222220           0.04444447           0.81666667 C 
atom_frac            0.04444447           0.02222220           0.85000000 C 
atom_frac            0.00000000           0.00000000           0.88333333 C 
atom_frac            0.00000000           0.00000000           0.91666667 C 
atom_frac            0.02222220           0.04444447           0.88333333 C 
atom_frac            0.04444447           0.02222220           0.91666667 C 
atom_frac            0.00000000           0.00000000           0.95000000 C 
atom_frac            0.00000000           0.00000000           0.98333333 C 
atom_frac            0.02222220           0.04444447           0.95000000 C 
atom_frac            0.04444447           0.02222220           0.98333333 C 
atom_frac            0.00000000           0.06666667           0.01666667 C 
atom_frac            0.00000000           0.06666667           0.05000000 C 
atom_frac            0.02222220           0.11111113           0.01666667 C 
atom_frac            0.04444447           0.08888887           0.05000000 C 
atom_frac            0.00000000           0.06666667           0.08333333 C 
atom_frac            0.00000000           0.06666667           0.11666667 C 
atom_frac            0.02222220           0.11111113           0.08333333 C 
atom_frac            0.04444447           0.08888887           0.11666667 C 
atom_frac            0.00000000           0.06666667           0.15000000 C 
atom_frac            0.00000000           0.06666667           0.18333333 C 
atom_frac            0.02222220           0.11111113           0.15000000 C 
atom_frac            0.04444447           0.08888887           0.18333333 C 
atom_frac            0.00000000           0.06666667           0.21666667 C 
atom_frac            0.00000000           0.06666667           0.25000000 C 
atom_frac            0.02222220           0.11111113           0.21666667 C 
atom_frac            0.04444447           0.08888887           0.25000000 C 
atom_frac            0.00000000           0.06666667           0.28333333 C 
atom_frac            0.00000000           0.06666667           0.31666667 C 
atom_frac            0.02222220           0.11111113           0.28333333 C 
atom_frac            0.04444447           0.08888887           0.31666667 C 
atom_frac            0.00000000           0.06666667           0.35000000 C 
atom_frac            0.00000000           0.06666667           0.38333333 C 
atom_frac            0.02222220           0.11111113           0.35000000 C 
atom_frac            0.04444447           0.08888887           0.38333333 C 
atom_frac            0.00000000           0.06666667           0.41666667 C 
atom_frac            0.00000000           0.06666667           0.45000000 C 
atom_frac            0.02222220           0.11111113           0.41666667 C 
atom_frac            0.04444447           0.08888887           0.45000000 C 
atom_frac            0.00000000           0.06666667           0.48333333 C 
atom_frac            0.00000000           0.06666667           0.51666667 C 
atom_frac            0.02222220           0.11111113           0.48333333 C 
atom_frac            0.04444447           0.08888887           0.51666667 C 
atom_frac            0.00000000           0.06666667           0.55000000 C 
atom_frac            0.00000000           0.06666667           0.58333333 C 
atom_frac            0.02222220           0.11111113           0.55000000 C 
atom_frac            0.04444447           0.08888887           0.58333333 C 
atom_frac            0.00000000           0.06666667           0.61666667 C 
atom_frac            0.00000000           0.06666667           0.65000000 C 
atom_frac            0.02222220           0.11111113           0.61666667 C 
atom_frac            0.04444447           0.08888887           0.65000000 C 
atom_frac            0.00000000           0.06666667           0.68333333 C 
atom_frac            0.00000000           0.06666667           0.71666667 C 
atom_frac            0.02222220           0.11111113           0.68333333 C 
atom_frac            0.04444447           0.08888887           0.71666667 C 
atom_frac            0.00000000           0.06666667           0.75000000 C 
atom_frac            0.00000000           0.06666667           0.78333333 C 
atom_frac            0.02222220           0.11111113           0.75000000 C 
atom_frac            0.04444447           0.08888887           0.78333333 C 
atom_frac            0.00000000           0.06666667           0.81666667 C 
atom_frac            0.00000000           0.06666667           0.85000000 C 
atom_frac            0.02222220           0.11111113           0.81666667 C 
atom_frac            0.04444447           0.08888887           0.85000000 C 
atom_frac            0.00000000           0.06666667           0.88333333 C 
atom_frac            0.00000000           0.06666667           0.91666667 C 
atom_frac            0.02222220           0.11111113           0.88333333 C 
atom_frac            0.04444447           0.08888887           0.91666667 C 
atom_frac            0.00000000           0.06666667           0.95000000 C 
atom_frac            0.00000000           0.06666667           0.98333333 C 
atom_frac            0.02222220           0.11111113           0.95000000 C 
atom_frac            0.04444447           0.08888887           0.98333333 C 
atom_frac            0.00000000           0.13333333           0.01666667 C 
atom_frac            0.00000000           0.13333333           0.05000000 C 
atom_frac            0.02222220           0.17777780           0.01666667 C 
atom_frac            0.04444447           0.15555553           0.05000000 C 
atom_frac            0.00000000           0.13333333           0.08333333 C 
atom_frac            0.00000000           0.13333333           0.11666667 C 
atom_frac            0.02222220           0.17777780           0.08333333 C 
atom_frac            0.04444447           0.15555553           0.11666667 C 
atom_frac            0.00000000           0.13333333           0.15000000 C 
atom_frac            0.00000000           0.13333333           0.18333333 C 
atom_frac            0.02222220           0.17777780           0.15000000 C 
atom_frac            0.04444447           0.15555553           0.18333333 C 
atom_frac            0.00000000           0.13333333           0.21666667 C 
atom_frac            0.00000000           0.13333333           0.25000000 C 
atom_frac            0.02222220           0.17777780           0.21666667 C 
atom_frac            0.04444447           0.15555553           0.25000000 C 
atom_frac            0.00000000           0.13333333           0.28333333 C 
atom_frac            0.00000000           0.13333333           0.31666667 C 
atom_frac            0.02222220           0.17777780           0.28333333 C 
atom_frac            0.04444447           0.15555553           0.31666667 C 
atom_frac            0.00000000           0.13333333           0.35000000 C 
atom_frac            0.00000000           0.13333333           0.38333333 C 
atom_frac            0.02222220           0.17777780           0.35000000 C 
atom_frac            0.04444447           0.15555553           0.38333333 C 
atom_frac            0.00000000           0.13333333           0.41666667 C 
atom_frac            0.00000000           0.13333333           0.45000000 C 
atom_frac            0.02222220           0.17777780           0.41666667 C 
atom_frac            0.04444447           0.15555553           0.45000000 C 
atom_frac            0.00000000           0.13333333           0.48333333 C 
atom_frac            0.00000000           0.13333333           0.51666667 C 
atom_frac            0.02222220           0.17777780           0.48333333 C 
atom_frac            0.04444447           0.15555553           0.51666667 C 
atom_frac            0.00000000           0.13333333           0.55000000 C 
atom_frac            0.00000000           0.13333333           0.58333333 C 
atom_frac            0.02222220           0.17777780           0.55000000 C 
atom_frac            0.04444447           0.15555553           0.58333333 C 
atom_frac            0.00000000           0.13333333           0.61666667 C 
atom_frac            0.00000000           0.13333333           0.65000000 C 
atom_frac            0.02222220           0.17777780           0.61666667 C 
atom_frac            0.04444447           0.15555553           0.65000000 C 
atom_frac            0.00000000           0.13333333           0.68333333 C 
atom_frac            0.00000000           0.13333333           0.71666667 C 
atom_frac            0.02222220           0.17777780           0.68333333 C 
atom_frac            0.04444447           0.15555553           0.71666667 C 
atom_frac            0.00000000           0.13333333           0.75000000 C 
atom_frac            0.00000000           0.13333333           0.78333333 C 
atom_frac            0.02222220           0.17777780           0.75000000 C 
atom_frac            0.04444447           0.15555553           0.78333333 C 
atom_frac            0.00000000           0.13333333           0.81666667 C 
atom_frac            0.00000000           0.13333333           0.85000000 C 
atom_frac            0.02222220           0.17777780           0.81666667 C 
atom_frac            0.04444447           0.15555553           0.85000000 C 
atom_frac            0.00000000           0.13333333           0.88333333 C 
atom_frac            0.00000000           0.13333333           0.91666667 C 
atom_frac            0.02222220           0.17777780           0.88333333 C 
atom_frac            0.04444447           0.15555553           0.91666667 C 
atom_frac            0.00000000           0.13333333           0.95000000 C 
atom_frac            0.00000000           0.13333333           0.98333333 C 
atom_frac            0.02222220           0.17777780           0.95000000 C 
atom_frac            0.04444447           0.15555553           0.98333333 C 
atom_frac            0.00000000           0.20000000           0.01666667 C 
atom_frac            0.00000000           0.20000000           0.05000000 C 
atom_frac            0.02222220           0.24444447           0.01666667 C 
atom_frac            0.04444447           0.22222220           0.05000000 C 
atom_frac            0.00000000           0.20000000           0.08333333 C 
atom_frac            0.00000000           0.20000000           0.11666667 C 
atom_frac            0.02222220           0.24444447           0.08333333 C 
atom_frac            0.04444447           0.22222220           0.11666667 C 
atom_frac            0.00000000           0.20000000           0.15000000 C 
atom_frac            0.00000000           0.20000000           0.18333333 C 
atom_frac            0.02222220           0.24444447           0.15000000 C 
atom_frac            0.04444447           0.22222220           0.18333333 C 
atom_frac            0.00000000           0.20000000           0.21666667 C 
atom_frac            0.00000000           0.20000000           0.25000000 C 
atom_frac            0.02222220           0.24444447           0.21666667 C 
atom_frac            0.04444447           0.22222220           0.25000000 C 
atom_frac            0.00000000           0.20000000           0.28333333 C 
atom_frac            0.00000000           0.20000000           0.31666667 C 
atom_frac            0.02222220           0.24444447           0.28333333 C 
atom_frac            0.04444447           0.22222220           0.31666667 C 
atom_frac            0.00000000           0.20000000           0.35000000 C 
atom_frac            0.00000000           0.20000000           0.38333333 C 
atom_frac            0.02222220           0.24444447           0.35000000 C 
atom_frac            0.04444447           0.22222220           0.38333333 C 
atom_frac            0.00000000           0.20000000           0.41666667 C 
atom_frac            0.00000000           0.20000000           0.45000000 C 
atom_frac            0.02222220           0.24444447           0.41666667 C 
atom_frac            0.04444447           0.22222220           0.45000000 C 
atom_frac            0.00000000           0.20000000           0.48333333 C 
atom_frac            0.00000000           0.20000000           0.51666667 C 
atom_frac            0.02222220           0.24444447           0.48333333 C 
atom_frac            0.04444447           0.22222220           0.51666667 C 
atom_frac            0.00000000           0.20000000           0.55000000 C 
atom_frac            0.00000000           0.20000000           0.58333333 C 
atom_frac            0.02222220           0.24444447           0.55000000 C 
atom_frac            0.04444447           0.22222220           0.58333333 C 
atom_frac            0.00000000           0.20000000           0.61666667 C 
atom_frac            0.00000000           0.20000000           0.65000000 C 
atom_frac            0.02222220           0.24444447           0.61666667 C 
atom_frac            0.04444447           0.22222220           0.65000000 C 
atom_frac            0.00000000           0.20000000           0.68333333 C 
atom_frac            0.00000000           0.20000000           0.71666667 C 
atom_frac            0.02222220           0.24444447           0.68333333 C 
atom_frac            0.04444447           0.22222220           0.71666667 C 
atom_frac            0.00000000           0.20000000           0.75000000 C 
atom_frac            0.00000000           0.20000000           0.78333333 C 
atom_frac            0.02222220           0.24444447           0.75000000 C 
atom_frac            0.04444447           0.22222220           0.78333333 C 
atom_frac            0.00000000           0.20000000           0.81666667 C 
atom_frac            0.00000000           0.20000000           0.85000000 C 
atom_frac            0.02222220           0.24444447           0.81666667 C 
atom_frac            0.04444447           0.22222220           0.85000000 C 
atom_frac            0.00000000           0.20000000           0.88333333 C 
atom_frac            0.00000000           0.20000000           0.91666667 C 
atom_frac            0.02222220           0.24444447           0.88333333 C 
atom_frac            0.04444447           0.22222220           0.91666667 C 
atom_frac            0.00000000           0.20000000           0.95000000 C 
atom_frac            0.00000000           0.20000000           0.98333333 C 
atom_frac            0.02222220           0.24444447           0.95000000 C 
atom_frac            0.04444447           0.22222220           0.98333333 C 
atom_frac            0.00000000           0.26666667           0.01666667 C 
atom_frac            0.00000000           0.26666667           0.05000000 C 
atom_frac            0.02222220           0.31111113           0.01666667 C 
atom_frac            0.04444447           0.28888887           0.05000000 C 
atom_frac            0.00000000           0.26666667           0.08333333 C 
atom_frac            0.00000000           0.26666667           0.11666667 C 
atom_frac            0.02222220           0.31111113           0.08333333 C 
atom_frac            0.04444447           0.28888887           0.11666667 C 
atom_frac            0.00000000           0.26666667           0.15000000 C 
atom_frac            0.00000000           0.26666667           0.18333333 C 
atom_frac            0.02222220           0.31111113           0.15000000 C 
atom_frac            0.04444447           0.28888887           0.18333333 C 
atom_frac            0.00000000           0.26666667           0.21666667 C 
atom_frac            0.00000000           0.26666667           0.25000000 C 
atom_frac            0.02222220           0.31111113           0.21666667 C 
atom_frac            0.04444447           0.28888887           0.25000000 C 
atom_frac            0.00000000           0.26666667           0.28333333 C 
atom_frac            0.00000000           0.26666667           0.31666667 C 
atom_frac            0.02222220           0.31111113           0.28333333 C 
atom_frac            0.04444447           0.28888887           0.31666667 C 
atom_frac            0.00000000           0.26666667           0.35000000 C 
atom_frac            0.00000000           0.26666667           0.38333333 C 
atom_frac            0.02222220           0.31111113           0.35000000 C 
atom_frac            0.04444447           0.28888887           0.38333333 C 
atom_frac            0.00000000           0.26666667           0.41666667 C 
atom_frac            0.00000000           0.26666667           0.45000000 C 
atom_frac            0.02222220           0.31111113           0.41666667 C 
atom_frac            0.04444447           0.28888887           0.45000000 C 
atom_frac            0.00000000           0.26666667           0.48333333 C 
atom_frac            0.00000000           0.26666667           0.51666667 C 
atom_frac            0.02222220           0.31111113           0.48333333 C 
atom_frac            0.04444447           0.28888887           0.51666667 C 
atom_frac            0.00000000           0.26666667           0.55000000 C 
atom_frac            0.00000000           0.26666667           0.58333333 C 
atom_frac            0.02222220           0.31111113           0.55000000 C 
atom_frac            0.04444447           0.28888887           0.58333333 C 
atom_frac            0.00000000           0.26666667           0.61666667 C 
atom_frac            0.00000000           0.26666667           0.65000000 C 
atom_frac            0.02222220           0.31111113           0.61666667 C 
atom_frac            0.04444447           0.28888887           0.65000000 C 
atom_frac            0.00000000           0.26666667           0.68333333 C 
atom_frac            0.00000000           0.26666667           0.71666667 C 
atom_frac            0.02222220           0.31111113           0.68333333 C 
atom_frac            0.04444447           0.28888887           0.71666667 C 
atom_frac            0.00000000           0.26666667           0.75000000 C 
atom_frac            0.00000000           0.26666667           0.78333333 C 
atom_frac            0.02222220           0.31111113           0.75000000 C 
atom_frac            0.04444447           0.28888887           0.78333333 C 
atom_frac            0.00000000           0.26666667           0.81666667 C 
atom_frac            0.00000000           0.26666667           0.85000000 C 
atom_frac            0.02222220           0.31111113           0.81666667 C 
atom_frac            0.04444447           0.28888887           0.85000000 C 
atom_frac            0.00000000           0.26666667           0.88333333 C 
atom_frac            0.00000000           0.26666667           0.91666667 C 
atom_frac            0.02222220           0.31111113           0.88333333 C 
atom_frac            0.04444447           0.28888887           0.91666667 C 
atom_frac            0.00000000           0.26666667           0.95000000 C 
atom_frac            0.00000000           0.26666667           0.98333333 C 
atom_frac            0.02222220           0.31111113           0.95000000 C 
atom_frac            0.04444447           0.28888887           0.98333333 C 
atom_frac            0.00000000           0.33333333           0.01666667 C 
atom_frac            0.00000000           0.33333333           0.05000000 C 
atom_frac            0.02222220           0.37777780           0.01666667 C 
atom_frac            0.04444447           0.35555553           0.05000000 C 
atom_frac            0.00000000           0.33333333           0.08333333 C 
atom_frac            0.00000000           0.33333333           0.11666667 C 
atom_frac            0.02222220           0.37777780           0.08333333 C 
atom_frac            0.04444447           0.35555553           0.11666667 C 
atom_frac            0.00000000           0.33333333           0.15000000 C 
atom_frac            0.00000000           0.33333333           0.18333333 C 
atom_frac            0.02222220           0.37777780           0.15000000 C 
atom_frac            0.04444447           0.35555553           0.18333333 C 
atom_frac            0.00000000           0.33333333           0.21666667 C 
atom_frac            0.00000000           0.33333333           0.25000000 C 
atom_frac            0.02222220           0.37777780           0.21666667 C 
atom_frac            0.04444447           0.35555553           0.25000000 C 
atom_frac            0.00000000           0.33333333           0.28333333 C 
atom_frac            0.00000000           0.33333333           0.31666667 C 
atom_frac            0.02222220           0.37777780           0.28333333 C 
atom_frac            0.04444447           0.35555553           0.31666667 C 
atom_frac            0.00000000           0.33333333           0.35000000 C 
atom_frac            0.00000000           0.33333333           0.38333333 C 
atom_frac            0.02222220           0.37777780           0.35000000 C 
atom_frac            0.04444447           0.35555553           0.38333333 C 
atom_frac            0.00000000           0.33333333           0.41666667 C 
atom_frac            0.00000000           0.33333333           0.45000000 C 
atom_frac            0.02222220           0.37777780           0.41666667 C 
atom_frac            0.04444447           0.35555553           0.45000000 C 
atom_frac            0.00000000           0.33333333           0.48333333 C 
atom_frac            0.00000000           0.33333333           0.51666667 C 
atom_frac            0.02222220           0.37777780           0.48333333 C 
atom_frac            0.04444447           0.35555553           0.51666667 C 
atom_frac            0.00000000           0.33333333           0.55000000 C 
atom_frac            0.00000000           0.33333333           0.58333333 C 
atom_frac            0.02222220           0.37777780           0.55000000 C 
atom_frac            0.04444447           0.35555553           0.58333333 C 
atom_frac            0.00000000           0.33333333           0.61666667 C 
atom_frac            0.00000000           0.33333333           0.65000000 C 
atom_frac            0.02222220           0.37777780           0.61666667 C 
atom_frac            0.04444447           0.35555553           0.65000000 C 
atom_frac            0.00000000           0.33333333           0.68333333 C 
atom_frac            0.00000000           0.33333333           0.71666667 C 
atom_frac            0.02222220           0.37777780           0.68333333 C 
atom_frac            0.04444447           0.35555553           0.71666667 C 
atom_frac            0.00000000           0.33333333           0.75000000 C 
atom_frac            0.00000000           0.33333333           0.78333333 C 
atom_frac            0.02222220           0.37777780           0.75000000 C 
atom_frac            0.04444447           0.35555553           0.78333333 C 
atom_frac            0.00000000           0.33333333           0.81666667 C 
atom_frac            0.00000000           0.33333333           0.85000000 C 
atom_frac            0.02222220           0.37777780           0.81666667 C 
atom_frac            0.04444447           0.35555553           0.85000000 C 
atom_frac            0.00000000           0.33333333           0.88333333 C 
atom_frac            0.00000000           0.33333333           0.91666667 C 
atom_frac            0.02222220           0.37777780           0.88333333 C 
atom_frac            0.04444447           0.35555553           0.91666667 C 
atom_frac            0.00000000           0.33333333           0.95000000 C 
atom_frac            0.00000000           0.33333333           0.98333333 C 
atom_frac            0.02222220           0.37777780           0.95000000 C 
atom_frac            0.04444447           0.35555553           0.98333333 C 
atom_frac            0.00000000           0.40000000           0.01666667 C 
atom_frac            0.00000000           0.40000000           0.05000000 C 
atom_frac            0.02222220           0.44444447           0.01666667 C 
atom_frac            0.04444447           0.42222220           0.05000000 C 
atom_frac            0.00000000           0.40000000           0.08333333 C 
atom_frac            0.00000000           0.40000000           0.11666667 C 
atom_frac            0.02222220           0.44444447           0.08333333 C 
atom_frac            0.04444447           0.42222220           0.11666667 C 
atom_frac            0.00000000           0.40000000           0.15000000 C 
atom_frac            0.00000000           0.40000000           0.18333333 C 
atom_frac            0.02222220           0.44444447           0.15000000 C 
atom_frac            0.04444447           0.42222220           0.18333333 C 
atom_frac            0.00000000           0.40000000           0.21666667 C 
atom_frac            0.00000000           0.40000000           0.25000000 C 
atom_frac            0.02222220           0.44444447           0.21666667 C 
atom_frac            0.04444447           0.42222220           0.25000000 C 
atom_frac            0.00000000           0.40000000           0.28333333 C 
atom_frac            0.00000000           0.40000000           0.31666667 C 
atom_frac            0.02222220           0.44444447           0.28333333 C 
atom_frac            0.04444447           0.42222220           0.31666667 C 
atom_frac            0.00000000           0.40000000           0.35000000 C 
atom_frac            0.00000000           0.40000000           0.38333333 C 
atom_frac            0.02222220           0.44444447           0.35000000 C 
atom_frac            0.04444447           0.42222220           0.38333333 C 
atom_frac            0.00000000           0.40000000           0.41666667 C 
atom_frac            0.00000000           0.40000000           0.45000000 C 