lattice_vector           12.30600000         -21.31460000           0.00000000
lattice_vector           12.30600000          21.31460000           0.00000000
lattice_vector            0.00000000           0.00000000          67.09000000

atom_frac            0.00000000           0.00000000           0.02500000 C 
atom_frac            0.00000000           0.00000000           0.07500000 C 
atom_frac            0.03333330           0.06666670           0.02500000 C 
atom_frac            0.06666670           0.03333330           0.07500000 C 
atom_frac            0.00000000           0.00000000           0.12500000 C 
atom_frac            0.00000000           0.00000000           0.17500000 C 
atom_frac            0.03333330           0.06666670           0.12500000 C 
atom_frac            0.06666670           0.03333330           0.17500000 C 
atom_frac            0.00000000           0.00000000           0.22500000 C 
atom_frac            0.00000000           0.00000000           0.27500000 C 
atom_frac            0.03333330           0.06666670           0.22500000 C 
atom_frac            0.06666670           0.03333330           0.27500000 C 
atom_frac            0.00000000           0.00000000           0.32500000 C 
atom_frac            0.00000000           0.00000000           0.37500000 C 
atom_frac            0.03333330           0.06666670           0.32500000 C 
atom_frac            0.06666670           0.03333330           0.37500000 C 
atom_frac            0.00000000           0.00000000           0.42500000 C 
atom_frac            0.00000000           0.00000000           0.47500000 C 
atom_frac            0.03333330           0.06666670           0.42500000 C 
atom_frac            0.06666670           0.03333330           0.47500000 C 
atom_frac            0.00000000           0.00000000           0.52500000 C 
atom_frac            0.00000000           0.00000000           0.57500000 C 
atom_frac            0.03333330           0.06666670           0.52500000 C 
atom_frac            0.06666670           0.03333330           0.57500000 C 
atom_frac            0.00000000           0.00000000           0.62500000 C 
atom_frac            0.00000000           0.00000000           0.67500000 C 
atom_frac            0.03333330           0.06666670           0.62500000 C 
atom_frac            0.06666670           0.03333330           0.67500000 C 
atom_frac            0.00000000           0.00000000           0.72500000 C 
atom_frac            0.00000000           0.00000000           0.77500000 C 
atom_frac            0.03333330           0.06666670           0.72500000 C 
atom_frac            0.06666670           0.03333330           0.77500000 C 
atom_frac            0.00000000           0.00000000           0.82500000 C 
atom_frac            0.00000000           0.00000000           0.87500000 C 
atom_frac            0.03333330           0.06666670           0.82500000 C 
atom_frac            0.06666670           0.03333330           0.87500000 C 
atom_frac            0.00000000           0.00000000           0.92500000 C 
atom_frac            0.00000000           0.00000000           0.97500000 C 
atom_frac            0.03333330           0.06666670           0.92500000 C 
atom_frac            0.06666670           0.03333330           0.97500000 C 
atom_frac            0.00000000           0.10000000           0.02500000 C 
atom_frac            0.00000000           0.10000000           0.07500000 C 
atom_frac            0.03333330           0.16666670           0.02500000 C 
atom_frac            0.06666670           0.13333330           0.07500000 C 
atom_frac            0.00000000           0.10000000           0.12500000 C 
atom_frac            0.00000000           0.10000000           0.17500000 C 
atom_frac            0.03333330           0.16666670           0.12500000 C 
atom_frac            0.06666670           0.13333330           0.17500000 C 
atom_frac            0.00000000           0.10000000           0.22500000 C 
atom_frac            0.00000000           0.10000000           0.27500000 C 
atom_frac            0.03333330           0.16666670           0.22500000 C 
atom_frac            0.06666670           0.13333330           0.27500000 C 
atom_frac            0.00000000           0.10000000           0.32500000 C 
atom_frac            0.00000000           0.10000000           0.37500000 C 
atom_frac            0.03333330           0.16666670           0.32500000 C 
atom_frac            0.06666670           0.13333330           0.37500000 C 
atom_frac            0.00000000           0.10000000           0.42500000 C 
atom_frac            0.00000000           0.10000000           0.47500000 C 
atom_frac            0.03333330           0.16666670           0.42500000 C 
atom_frac            0.06666670           0.13333330           0.47500000 C 
atom_frac            0.00000000           0.10000000           0.52500000 C 
atom_frac            0.00000000           0.10000000           0.57500000 C 
atom_frac            0.03333330           0.16666670           0.52500000 C 
atom_frac            0.06666670           0.13333330           0.57500000 C 
atom_frac            0.00000000           0.10000000           0.62500000 C 
atom_frac            0.00000000           0.10000000           0.67500000 C 
atom_frac            0.03333330           0.16666670           0.62500000 C 
atom_frac            0.06666670           0.13333330           0.67500000 C 
atom_frac            0.00000000           0.10000000           0.72500000 C 
atom_frac            0.00000000           0.10000000           0.77500000 C 
atom_frac            0.03333330           0.16666670           0.72500000 C 
atom_frac            0.06666670           0.13333330           0.77500000 C 
atom_frac            0.00000000           0.10000000           0.82500000 C 
atom_frac            0.00000000           0.10000000           0.87500000 C 
atom_frac            0.03333330           0.16666670           0.82500000 C 
atom_frac            0.06666670           0.13333330           0.87500000 C 
atom_frac            0.00000000           0.10000000           0.92500000 C 
atom_frac            0.00000000           0.10000000           0.97500000 C 
atom_frac            0.03333330           0.16666670           0.92500000 C 
atom_frac            0.06666670           0.13333330           0.97500000 C 
atom_frac            0.00000000           0.20000000           0.02500000 C 
atom_frac            0.00000000           0.20000000           0.07500000 C 
atom_frac            0.03333330           0.26666670           0.02500000 C 
atom_frac            0.06666670           0.23333330           0.07500000 C 
atom_frac            0.00000000           0.20000000           0.12500000 C 
atom_frac            0.00000000           0.20000000           0.17500000 C 
atom_frac            0.03333330           0.26666670           0.12500000 C 
atom_frac            0.06666670           0.23333330           0.17500000 C 
atom_frac            0.00000000           0.20000000           0.22500000 C 
atom_frac            0.00000000           0.20000000           0.27500000 C 
atom_frac            0.03333330           0.26666670           0.22500000 C 
atom_frac            0.06666670           0.23333330           0.27500000 C 
atom_frac            0.00000000           0.20000000           0.32500000 C 
atom_frac            0.00000000           0.20000000           0.37500000 C 
atom_frac            0.03333330           0.26666670           0.32500000 C 
atom_frac            0.06666670           0.23333330           0.37500000 C 
atom_frac            0.00000000           0.20000000           0.42500000 C 
atom_frac            0.00000000           0.20000000           0.47500000 C 
atom_frac            0.03333330           0.26666670           0.42500000 C 
atom_frac            0.06666670           0.23333330           0.47500000 C 
atom_frac            0.00000000           0.20000000           0.52500000 C 
atom_frac            0.00000000           0.20000000           0.57500000 C 
atom_frac            0.03333330           0.26666670           0.52500000 C 
atom_frac            0.06666670           0.23333330           0.57500000 C 
atom_frac            0.00000000           0.20000000           0.62500000 C 
atom_frac            0.00000000           0.20000000           0.67500000 C 
atom_frac            0.03333330           0.26666670           0.62500000 C 
atom_frac            0.06666670           0.23333330           0.67500000 C 
atom_frac            0.00000000           0.20000000           0.72500000 C 
atom_frac            0.00000000           0.20000000           0.77500000 C 
atom_frac            0.03333330           0.26666670           0.72500000 C 
atom_frac            0.06666670           0.23333330           0.77500000 C 
atom_frac            0.00000000           0.20000000           0.82500000 C 
atom_frac            0.00000000           0.20000000           0.87500000 C 
atom_frac            0.03333330           0.26666670           0.82500000 C 
atom_frac            0.06666670           0.23333330           0.87500000 C 
atom_frac            0.00000000           0.20000000           0.92500000 C 
atom_frac            0.00000000           0.20000000           0.97500000 C 
atom_frac            0.03333330           0.26666670           0.92500000 C 
atom_frac            0.06666670           0.23333330           0.97500000 C 
atom_frac            0.00000000           0.30000000           0.02500000 C 
atom_frac            0.00000000           0.30000000           0.07500000 C 
atom_frac            0.03333330           0.36666670           0.02500000 C 
atom_frac            0.06666670           0.33333330           0.07500000 C 
atom_frac            0.00000000           0.30000000           0.12500000 C 
atom_frac            0.00000000           0.30000000           0.17500000 C 
atom_frac            0.03333330           0.36666670           0.12500000 C 
atom_frac            0.06666670           0.33333330           0.17500000 C 
atom_frac            0.00000000           0.30000000           0.22500000 C 
atom_frac            0.00000000           0.30000000           0.27500000 C 
atom_frac            0.03333330           0.36666670           0.22500000 C 
atom_frac            0.06666670           0.33333330           0.27500000 C 
atom_frac            0.00000000           0.30000000           0.32500000 C 
atom_frac            0.00000000           0.30000000           0.37500000 C 
atom_frac            0.03333330           0.36666670           0.32500000 C 
atom_frac            0.06666670           0.33333330           0.37500000 C 
atom_frac            0.00000000           0.30000000           0.42500000 C 
atom_frac            0.00000000           0.30000000           0.47500000 C 
atom_frac            0.03333330           0.36666670           0.42500000 C 
atom_frac            0.06666670           0.33333330           0.47500000 C 
atom_frac            0.00000000           0.30000000           0.52500000 C 
atom_frac            0.00000000           0.30000000           0.57500000 C 
atom_frac            0.03333330           0.36666670           0.52500000 C 
atom_frac            0.06666670           0.33333330           0.57500000 C 
atom_frac            0.00000000           0.30000000           0.62500000 C 
atom_frac            0.00000000           0.30000000           0.67500000 C 
atom_frac            0.03333330           0.36666670           0.62500000 C 
atom_frac            0.06666670           0.33333330           0.67500000 C 
atom_frac            0.00000000           0.30000000           0.72500000 C 
atom_frac            0.00000000           0.30000000           0.77500000 C 
atom_frac            0.03333330           0.36666670           0.72500000 C 
atom_frac            0.06666670           0.33333330           0.77500000 C 
atom_frac            0.00000000           0.30000000           0.82500000 C 
atom_frac            0.00000000           0.30000000           0.87500000 C 
atom_frac            0.03333330           0.36666670           0.82500000 C 
atom_frac            0.06666670           0.33333330           0.87500000 C 
atom_frac            0.00000000           0.30000000           0.92500000 C 
atom_frac            0.00000000           0.30000000           0.97500000 C 
atom_frac            0.03333330           0.36666670           0.92500000 C 
atom_frac            0.06666670           0.33333330           0.97500000 C 
atom_frac            0.00000000           0.40000000           0.02500000 C 
atom_frac            0.00000000           0.40000000           0.07500000 C 
atom_frac            0.03333330           0.46666670           0.02500000 C 
atom_frac            0.06666670           0.43333330           0.07500000 C 
atom_frac            0.00000000           0.40000000           0.12500000 C 
atom_frac            0.00000000           0.40000000           0.17500000 C 
atom_frac            0.03333330           0.46666670           0.12500000 C 
atom_frac            0.06666670           0.43333330           0.17500000 C 
atom_frac            0.00000000           0.40000000           0.22500000 C 
atom_frac            0.00000000           0.40000000           0.27500000 C 
atom_frac            0.03333330           0.46666670           0.22500000 C 
atom_frac            0.06666670           0.43333330           0.27500000 C 
atom_frac            0.00000000           0.40000000           0.32500000 C 
atom_frac            0.00000000           0.40000000           0.37500000 C 
atom_frac            0.03333330           0.46666670           0.32500000 C 
atom_frac            0.06666670           0.43333330           0.37500000 C 
atom_frac            0.00000000           0.40000000           0.42500000 C 
atom_frac            0.00000000           0.40000000           0.47500000 C 
atom_frac            0.03333330           0.46666670           0.42500000 C 
atom_frac            0.06666670           0.43333330           0.47500000 C 
atom_frac            0.00000000           0.40000000           0.52500000 C 
atom_frac            0.00000000           0.40000000           0.57500000 C 
atom_frac            0.03333330           0.46666670           0.52500000 C 
atom_frac            0.06666670           0.43333330           0.57500000 C 
atom_frac            0.00000000           0.40000000           0.62500000 C 
atom_frac            0.00000000           0.40000000           0.67500000 C 
atom_frac            0.03333330           0.46666670           0.62500000 C 
atom_frac            0.06666670           0.43333330           0.67500000 C 
atom_frac            0.00000000           0.40000000           0.72500000 C 
atom_frac            0.00000000           0.40000000           0.77500000 C 
atom_frac            0.03333330           0.46666670           0.72500000 C 
atom_frac            0.06666670           0.43333330           0.77500000 C 
atom_frac            0.00000000           0.40000000           0.82500000 C 
atom_frac            0.00000000           0.40000000           0.87500000 C 
atom_frac            0.03333330           0.46666670           0.82500000 C 
atom_frac            0.06666670           0.43333330           0.87500000 C 
atom_frac            0.00000000           0.40000000           0.92500000 C 
atom_frac            0.00000000           0.40000000           0.97500000 C 
atom_frac            0.03333330           0.46666670           0.92500000 C 
atom_frac            0.06666670           0.43333330           0.97500000 C 
atom_frac            0.00000000           0.50000000           0.02500000 C 
atom_frac            0.00000000           0.50000000           0.07500000 C 
atom_frac            0.03333330           0.56666670           0.02500000 C 
atom_frac            0.06666670           0.53333330           0.07500000 C 
atom_frac            0.00000000           0.50000000           0.12500000 C 
atom_frac            0.00000000           0.50000000           0.17500000 C 
atom_frac            0.03333330           0.56666670           0.12500000 C 
atom_frac            0.06666670           0.53333330           0.17500000 C 
atom_frac            0.00000000           0.50000000           0.22500000 C 
atom_frac            0.00000000           0.50000000           0.27500000 C 
atom_frac            0.03333330           0.56666670           0.22500000 C 
atom_frac            0.06666670           0.53333330           0.27500000 C 
atom_frac            0.00000000           0.50000000           0.32500000 C 
atom_frac            0.00000000           0.50000000           0.37500000 C 
atom_frac            0.03333330           0.56666670           0.32500000 C 
atom_frac            0.06666670           0.53333330           0.37500000 C 
atom_frac            0.00000000           0.50000000           0.42500000 C 
atom_frac            0.00000000           0.50000000           0.47500000 C 
atom_frac            0.03333330           0.56666670           0.42500000 C 
atom_frac            0.06666670           0.53333330           0.47500000 C 
atom_frac            0.00000000           0.50000000           0.52500000 C 
atom_frac            0.00000000           0.50000000           0.57500000 C 
atom_frac            0.03333330           0.56666670           0.52500000 C 
atom_frac            0.06666670           0.53333330           0.57500000 C 
atom_frac            0.00000000           0.50000000           0.62500000 C 
atom_frac            0.00000000           0.50000000           0.67500000 C 
atom_frac            0.03333330           0.56666670           0.62500000 C 
atom_frac            0.06666670           0.53333330           0.67500000 C 
atom_frac            0.00000000           0.50000000           0.72500000 C 
atom_frac            0.00000000           0.50000000           0.77500000 C 
atom_frac            0.03333330           0.56666670           0.72500000 C 
atom_frac            0.06666670           0.53333330           0.77500000 C 
atom_frac            0.00000000           0.50000000           0.82500000 C 
atom_frac            0.00000000           0.50000000           0.87500000 C 
atom_frac            0.03333330           0.56666670           0.82500000 C 
atom_frac            0.06666670           0.53333330           0.87500000 C 
atom_frac            0.00000000           0.50000000           0.92500000 C 
atom_frac            0.00000000           0.50000000           0.97500000 C 
atom_frac            0.03333330           0.56666670           0.92500000 C 
atom_frac            0.06666670           0.53333330           0.97500000 C 
atom_frac            0.00000000           0.60000000           0.02500000 C 
atom_frac            0.00000000           0.60000000           0.07500000 C 
atom_frac            0.03333330           0.66666670           0.02500000 C 
atom_frac            0.06666670           0.63333330           0.07500000 C 
atom_frac            0.00000000           0.60000000           0.12500000 C 
atom_frac            0.00000000           0.60000000           0.17500000 C 
atom_frac            0.03333330           0.66666670           0.12500000 C 
atom_frac            0.06666670           0.63333330           0.17500000 C 
atom_frac            0.00000000           0.60000000           0.22500000 C 
atom_frac            0.00000000           0.60000000           0.27500000 C 
atom_frac            0.03333330           0.66666670           0.22500000 C 
atom_frac            0.06666670           0.63333330           0.27500000 C 
atom_frac            0.00000000           0.60000000           0.32500000 C 
atom_frac            0.00000000           0.60000000           0.37500000 C 
atom_frac            0.03333330           0.66666670           0.32500000 C 
atom_frac            0.06666670           0.63333330           0.37500000 C 
atom_frac            0.00000000           0.60000000           0.42500000 C 
atom_frac            0.00000000           0.60000000           0.47500000 C 
atom_frac            0.03333330           0.66666670           0.42500000 C 
atom_frac            0.06666670           0.63333330           0.47500000 C 
atom_frac            0.00000000           0.60000000           0.52500000 C 
atom_frac            0.00000000           0.60000000           0.57500000 C 
atom_frac            0.03333330           0.66666670           0.52500000 C 
atom_frac            0.06666670           0.63333330           0.57500000 C 
atom_frac            0.00000000           0.60000000           0.62500000 C 
atom_frac            0.00000000           0.60000000           0.67500000 C 
atom_frac            0.03333330           0.66666670           0.62500000 C 
atom_frac            0.06666670           0.63333330           0.67500000 C 
atom_frac            0.00000000           0.60000000           0.72500000 C 
atom_frac            0.00000000           0.60000000           0.77500000 C 
atom_frac            0.03333330           0.66666670           0.72500000 C 
atom_frac            0.06666670           0.63333330           0.77500000 C 
atom_frac            0.00000000           0.60000000           0.82500000 C 
atom_frac            0.00000000           0.60000000           0.87500000 C 
atom_frac            0.03333330           0.66666670           0.82500000 C 
atom_frac            0.06666670           0.63333330           0.87500000 C 
atom_frac            0.00000000           0.60000000           0.92500000 C 
atom_frac            0.00000000           0.60000000           0.97500000 C 
atom_frac            0.03333330           0.66666670           0.92500000 C 
atom_frac            0.06666670           0.63333330           0.97500000 C 
atom_frac            0.00000000           0.70000000           0.02500000 C 
atom_frac            0.00000000           0.70000000           0.07500000 C 
atom_frac            0.03333330           0.76666670           0.02500000 C 
atom_frac            0.06666670           0.73333330           0.07500000 C 
atom_frac            0.00000000           0.70000000           0.12500000 C 
atom_frac            0.00000000           0.70000000           0.17500000 C 
atom_frac            0.03333330           0.76666670           0.12500000 C 
atom_frac            0.06666670           0.73333330           0.17500000 C 
atom_frac            0.00000000           0.70000000           0.22500000 C 
atom_frac            0.00000000           0.70000000           0.27500000 C 
atom_frac            0.03333330           0.76666670           0.22500000 C 
atom_frac            0.06666670           0.73333330           0.27500000 C 
atom_frac            0.00000000           0.70000000           0.32500000 C 
atom_frac            0.00000000           0.70000000           0.37500000 C 
atom_frac            0.03333330           0.76666670           0.32500000 C 
atom_frac            0.06666670           0.73333330           0.37500000 C 
atom_frac            0.00000000           0.70000000           0.42500000 C 
atom_frac            0.00000000           0.70000000           0.47500000 C 
atom_frac            0.03333330           0.76666670           0.42500000 C 
atom_frac            0.06666670           0.73333330           0.47500000 C 
atom_frac            0.00000000           0.70000000           0.52500000 C 
atom_frac            0.00000000           0.70000000           0.57500000 C 
atom_frac            0.03333330           0.76666670           0.52500000 C 
atom_frac            0.06666670           0.73333330           0.57500000 C 
atom_frac            0.00000000           0.70000000           0.62500000 C 
atom_frac            0.00000000           0.70000000           0.67500000 C 
atom_frac            0.03333330           0.76666670           0.62500000 C 
atom_frac            0.06666670           0.73333330           0.67500000 C 
atom_frac            0.00000000           0.70000000           0.72500000 C 
atom_frac            0.00000000           0.70000000           0.77500000 C 
atom_frac            0.03333330           0.76666670           0.72500000 C 
atom_frac            0.06666670           0.73333330           0.77500000 C 
atom_frac            0.00000000           0.70000000           0.82500000 C 
atom_frac            0.00000000           0.70000000           0.87500000 C 
atom_frac            0.03333330           0.76666670           0.82500000 C 
atom_frac            0.06666670           0.73333330           0.87500000 C 
atom_frac            0.00000000           0.70000000           0.92500000 C 
atom_frac            0.00000000           0.70000000           0.97500000 C 
atom_frac            0.03333330           0.76666670           0.92500000 C 
atom_frac            0.06666670           0.73333330           0.97500000 C 
atom_frac            0.00000000           0.80000000           0.02500000 C 
atom_frac            0.00000000           0.80000000           0.07500000 C 
atom_frac            0.03333330           0.86666670           0.02500000 C 
atom_frac            0.06666670           0.83333330           0.07500000 C 
atom_frac            0.00000000           0.80000000           0.12500000 C 
atom_frac            0.00000000           0.80000000           0.17500000 C 
atom_frac            0.03333330           0.86666670           0.12500000 C 
atom_frac            0.06666670           0.83333330           0.17500000 C 
atom_frac            0.00000000           0.80000000           0.22500000 C 
atom_frac            0.00000000           0.80000000           0.27500000 C 
atom_frac            0.03333330           0.86666670           0.22500000 C 
atom_frac            0.06666670           0.83333330           0.27500000 C 
atom_frac            0.00000000           0.80000000           0.32500000 C 
atom_frac            0.00000000           0.80000000           0.37500000 C 
atom_frac            0.03333330           0.86666670           0.32500000 C 
atom_frac            0.06666670           0.83333330           0.37500000 C 
atom_frac            0.00000000           0.80000000           0.42500000 C 
atom_frac            0.00000000           0.80000000           0.47500000 C 
atom_frac            0.03333330           0.86666670           0.42500000 C 
atom_frac            0.06666670           0.83333330           0.47500000 C 
atom_frac            0.00000000           0.80000000           0.52500000 C 
atom_frac            0.00000000           0.80000000           0.57500000 C 
atom_frac            0.03333330           0.86666670           0.52500000 C 
atom_frac            0.06666670           0.83333330           0.57500000 C 
atom_frac            0.00000000           0.80000000           0.62500000 C 
atom_frac            0.00000000           0.80000000           0.67500000 C 
atom_frac            0.03333330           0.86666670           0.62500000 C 
atom_frac            0.06666670           0.83333330           0.67500000 C 
atom_frac            0.00000000           0.80000000           0.72500000 C 
atom_frac            0.00000000           0.80000000           0.77500000 C 
atom_frac            0.03333330           0.86666670           0.72500000 C 
atom_frac            0.06666670           0.83333330           0.77500000 C 
atom_frac            0.00000000           0.80000000           0.82500000 C 
atom_frac            0.00000000           0.80000000           0.87500000 C 
atom_frac            0.03333330           0.86666670           0.82500000 C 
atom_frac            0.06666670           0.83333330           0.87500000 C 
atom_frac            0.00000000           0.80000000           0.92500000 C 
atom_frac            0.00000000           0.80000000           0.97500000 C 
atom_frac            0.03333330           0.86666670           0.92500000 C 
atom_frac            0.06666670           0.83333330           0.97500000 C 
atom_frac            0.00000000           0.90000000           0.02500000 C 
atom_frac            0.00000000           0.90000000           0.07500000 C 
atom_frac            0.03333330           0.96666670           0.02500000 C 
atom_frac            0.06666670           0.93333330           0.07500000 C 
atom_frac            0.00000000           0.90000000           0.12500000 C 
atom_frac            0.00000000           0.90000000           0.17500000 C 
atom_frac            0.03333330           0.96666670           0.12500000 C 
atom_frac            0.06666670           0.93333330           0.17500000 C 
atom_frac            0.00000000           0.90000000           0.22500000 C 
atom_frac            0.00000000           0.90000000           0.27500000 C 
atom_frac            0.03333330           0.96666670           0.22500000 C 
atom_frac            0.06666670           0.93333330           0.27500000 C 
atom_frac            0.00000000           0.90000000           0.32500000 C 
atom_frac            0.00000000           0.90000000           0.37500000 C 
atom_frac            0.03333330           0.96666670           0.32500000 C 
atom_frac            0.06666670           0.93333330           0.37500000 C 
atom_frac            0.00000000           0.90000000           0.42500000 C 
atom_frac            0.00000000           0.90000000           0.47500000 C 
atom_frac            0.03333330           0.96666670           0.42500000 C 
atom_frac            0.06666670           0.93333330           0.47500000 C 
atom_frac            0.00000000           0.90000000           0.52500000 C 
atom_frac            0.00000000           0.90000000           0.57500000 C 
atom_frac            0.03333330           0.96666670           0.52500000 C 
atom_frac            0.06666670           0.93333330           0.57500000 C 
atom_frac            0.00000000           0.90000000           0.62500000 C 
atom_frac            0.00000000           0.90000000           0.67500000 C 