lattice_vector           25.00000000           0.00000000           0.00000000
lattice_vector            0.00000000          25.00000000           0.00000000
lattice_vector            0.00000000           0.00000000         580.80000000

atom_frac            0.13342159           0.00000000           0.00000000 Ge 
atom_frac            0.10794034           0.07842324           0.01041667 Ge 
atom_frac            0.10794034           0.07842324           0.00625000 Ge 
atom_frac            0.04122954           0.12689148           0.00416667 Ge 
atom_frac            0.04122954           0.12689148           0.00000000 Ge 
atom_frac            0.95877046           0.12689148           0.01041667 Ge 
atom_frac            0.95877046           0.12689148           0.00625000 Ge 
atom_frac            0.89205966           0.07842324           0.00416667 Ge 
atom_frac            0.89205966           0.07842324           0.00000000 Ge 
atom_frac            0.86657841           0.00000000           0.01041667 Ge 
atom_frac            0.86657841           0.00000000           0.00625000 Ge 
atom_frac            0.89205966           0.92157676           0.00416667 Ge 
atom_frac            0.89205966           0.92157676           0.00000000 Ge 
atom_frac            0.95877046           0.87310852           0.01041667 Ge 
atom_frac            0.95877046           0.87310852           0.00625000 Ge 
atom_frac            0.04122954           0.87310852           0.00416667 Ge 
atom_frac            0.04122954           0.87310852           0.00000000 Ge 
atom_frac            0.10794034           0.92157676           0.01041667 Ge 
atom_frac            0.10794034           0.92157676           0.00625000 Ge 
atom_frac            0.13342159           0.00000000           0.00416667 Ge 
atom_frac            0.13342159           0.00000000           0.01250000 Ge 
atom_frac            0.10794034           0.07842324           0.02291667 Ge 
atom_frac            0.10794034           0.07842324           0.01875000 Ge 
atom_frac            0.04122954           0.12689148           0.01666667 Ge 
atom_frac            0.04122954           0.12689148           0.01250000 Ge 
atom_frac            0.95877046           0.12689148           0.02291667 Ge 
atom_frac            0.95877046           0.12689148           0.01875000 Ge 
atom_frac            0.89205966           0.07842324           0.01666667 Ge 
atom_frac            0.89205966           0.07842324           0.01250000 Ge 
atom_frac            0.86657841           0.00000000           0.02291667 Ge 
atom_frac            0.86657841           0.00000000           0.01875000 Ge 
atom_frac            0.89205966           0.92157676           0.01666667 Ge 
atom_frac            0.89205966           0.92157676           0.01250000 Ge 
atom_frac            0.95877046           0.87310852           0.02291667 Ge 
atom_frac            0.95877046           0.87310852           0.01875000 Ge 
atom_frac            0.04122954           0.87310852           0.01666667 Ge 
atom_frac            0.04122954           0.87310852           0.01250000 Ge 
atom_frac            0.10794034           0.92157676           0.02291667 Ge 
atom_frac            0.10794034           0.92157676           0.01875000 Ge 
atom_frac            0.13342159           0.00000000           0.01666667 Ge 
atom_frac            0.13342159           0.00000000           0.02500000 Ge 
atom_frac            0.10794034           0.07842324           0.03541667 Ge 
atom_frac            0.10794034           0.07842324           0.03125000 Ge 
atom_frac            0.04122954           0.12689148           0.02916667 Ge 
atom_frac            0.04122954           0.12689148           0.02500000 Ge 
atom_frac            0.95877046           0.12689148           0.03541667 Ge 
atom_frac            0.95877046           0.12689148           0.03125000 Ge 
atom_frac            0.89205966           0.07842324           0.02916667 Ge 
atom_frac            0.89205966           0.07842324           0.02500000 Ge 
atom_frac            0.86657841           0.00000000           0.03541667 Ge 
atom_frac            0.86657841           0.00000000           0.03125000 Ge 
atom_frac            0.89205966           0.92157676           0.02916667 Ge 
atom_frac            0.89205966           0.92157676           0.02500000 Ge 
atom_frac            0.95877046           0.87310852           0.03541667 Ge 
atom_frac            0.95877046           0.87310852           0.03125000 Ge 
atom_frac            0.04122954           0.87310852           0.02916667 Ge 
atom_frac            0.04122954           0.87310852           0.02500000 Ge 
atom_frac            0.10794034           0.92157676           0.03541667 Ge 
atom_frac            0.10794034           0.92157676           0.03125000 Ge 
atom_frac            0.13342159           0.00000000           0.02916667 Ge 
atom_frac            0.13342159           0.00000000           0.03750000 Ge 
atom_frac            0.10794034           0.07842324           0.04791667 Ge 
atom_frac            0.10794034           0.07842324           0.04375000 Ge 
atom_frac            0.04122954           0.12689148           0.04166667 Ge 
atom_frac            0.04122954           0.12689148           0.03750000 Ge 
atom_frac            0.95877046           0.12689148           0.04791667 Ge 
atom_frac            0.95877046           0.12689148           0.04375000 Ge 
atom_frac            0.89205966           0.07842324           0.04166667 Ge 
atom_frac            0.89205966           0.07842324           0.03750000 Ge 
atom_frac            0.86657841           0.00000000           0.04791667 Ge 
atom_frac            0.86657841           0.00000000           0.04375000 Ge 
atom_frac            0.89205966           0.92157676           0.04166667 Ge 
atom_frac            0.89205966           0.92157676           0.03750000 Ge 
atom_frac            0.95877046           0.87310852           0.04791667 Ge 
atom_frac            0.95877046           0.87310852           0.04375000 Ge 
atom_frac            0.04122954           0.87310852           0.04166667 Ge 
atom_frac            0.04122954           0.87310852           0.03750000 Ge 
atom_frac            0.10794034           0.92157676           0.04791667 Ge 
atom_frac            0.10794034           0.92157676           0.04375000 Ge 
atom_frac            0.13342159           0.00000000           0.04166667 Ge 
atom_frac            0.13342159           0.00000000           0.05000000 Ge 
atom_frac            0.10794034           0.07842324           0.06041667 Ge 
atom_frac            0.10794034           0.07842324           0.05625000 Ge 
atom_frac            0.04122954           0.12689148           0.05416667 Ge 
atom_frac            0.04122954           0.12689148           0.05000000 Ge 
atom_frac            0.95877046           0.12689148           0.06041667 Ge 
atom_frac            0.95877046           0.12689148           0.05625000 Ge 
atom_frac            0.89205966           0.07842324           0.05416667 Ge 
atom_frac            0.89205966           0.07842324           0.05000000 Ge 
atom_frac            0.86657841           0.00000000           0.06041667 Ge 
atom_frac            0.86657841           0.00000000           0.05625000 Ge 
atom_frac            0.89205966           0.92157676           0.05416667 Ge 
atom_frac            0.89205966           0.92157676           0.05000000 Ge 
atom_frac            0.95877046           0.87310852           0.06041667 Ge 
atom_frac            0.95877046           0.87310852           0.05625000 Ge 
atom_frac            0.04122954           0.87310852           0.05416667 Ge 
atom_frac            0.04122954           0.87310852           0.05000000 Ge 
atom_frac            0.10794034           0.92157676           0.06041667 Ge 
atom_frac            0.10794034           0.92157676           0.05625000 Ge 
atom_frac            0.13342159           0.00000000           0.05416667 Ge 
atom_frac            0.13342159           0.00000000           0.06250000 Ge 
atom_frac            0.10794034           0.07842324           0.07291667 Ge 
atom_frac            0.10794034           0.07842324           0.06875000 Ge 
atom_frac            0.04122954           0.12689148           0.06666667 Ge 
atom_frac            0.04122954           0.12689148           0.06250000 Ge 
atom_frac            0.95877046           0.12689148           0.07291667 Ge 
atom_frac            0.95877046           0.12689148           0.06875000 Ge 
atom_frac            0.89205966           0.07842324           0.06666667 Ge 
atom_frac            0.89205966           0.07842324           0.06250000 Ge 
atom_frac            0.86657841           0.00000000           0.07291667 Ge 
atom_frac            0.86657841           0.00000000           0.06875000 Ge 
atom_frac            0.89205966           0.92157676           0.06666667 Ge 
atom_frac            0.89205966           0.92157676           0.06250000 Ge 
atom_frac            0.95877046           0.87310852           0.07291667 Ge 
atom_frac            0.95877046           0.87310852           0.06875000 Ge 
atom_frac            0.04122954           0.87310852           0.06666667 Ge 
atom_frac            0.04122954           0.87310852           0.06250000 Ge 
atom_frac            0.10794034           0.92157676           0.07291667 Ge 
atom_frac            0.10794034           0.92157676           0.06875000 Ge 
atom_frac            0.13342159           0.00000000           0.06666667 Ge 
atom_frac            0.13342159           0.00000000           0.07500000 Ge 
atom_frac            0.10794034           0.07842324           0.08541667 Ge 
atom_frac            0.10794034           0.07842324           0.08125000 Ge 
atom_frac            0.04122954           0.12689148           0.07916667 Ge 
atom_frac            0.04122954           0.12689148           0.07500000 Ge 
atom_frac            0.95877046           0.12689148           0.08541667 Ge 
atom_frac            0.95877046           0.12689148           0.08125000 Ge 
atom_frac            0.89205966           0.07842324           0.07916667 Ge 
atom_frac            0.89205966           0.07842324           0.07500000 Ge 
atom_frac            0.86657841           0.00000000           0.08541667 Ge 
atom_frac            0.86657841           0.00000000           0.08125000 Ge 
atom_frac            0.89205966           0.92157676           0.07916667 Ge 
atom_frac            0.89205966           0.92157676           0.07500000 Ge 
atom_frac            0.95877046           0.87310852           0.08541667 Ge 
atom_frac            0.95877046           0.87310852           0.08125000 Ge 
atom_frac            0.04122954           0.87310852           0.07916667 Ge 
atom_frac            0.04122954           0.87310852           0.07500000 Ge 
atom_frac            0.10794034           0.92157676           0.08541667 Ge 
atom_frac            0.10794034           0.92157676           0.08125000 Ge 
atom_frac            0.13342159           0.00000000           0.07916667 Ge 
atom_frac            0.13342159           0.00000000           0.08750000 Ge 
atom_frac            0.10794034           0.07842324           0.09791667 Ge 
atom_frac            0.10794034           0.07842324           0.09375000 Ge 
atom_frac            0.04122954           0.12689148           0.09166667 Ge 
atom_frac            0.04122954           0.12689148           0.08750000 Ge 
atom_frac            0.95877046           0.12689148           0.09791667 Ge 
atom_frac            0.95877046           0.12689148           0.09375000 Ge 
atom_frac            0.89205966           0.07842324           0.09166667 Ge 
atom_frac            0.89205966           0.07842324           0.08750000 Ge 
atom_frac            0.86657841           0.00000000           0.09791667 Ge 
atom_frac            0.86657841           0.00000000           0.09375000 Ge 
atom_frac            0.89205966           0.92157676           0.09166667 Ge 
atom_frac            0.89205966           0.92157676           0.08750000 Ge 
atom_frac            0.95877046           0.87310852           0.09791667 Ge 
atom_frac            0.95877046           0.87310852           0.09375000 Ge 
atom_frac            0.04122954           0.87310852           0.09166667 Ge 
atom_frac            0.04122954           0.87310852           0.08750000 Ge 
atom_frac            0.10794034           0.92157676           0.09791667 Ge 
atom_frac            0.10794034           0.92157676           0.09375000 Ge 
atom_frac            0.13342159           0.00000000           0.09166667 Ge 
atom_frac            0.13342159           0.00000000           0.10000000 Ge 
atom_frac            0.10794034           0.07842324           0.11041667 Ge 
atom_frac            0.10794034           0.07842324           0.10625000 Ge 
atom_frac            0.04122954           0.12689148           0.10416667 Ge 
atom_frac            0.04122954           0.12689148           0.10000000 Ge 
atom_frac            0.95877046           0.12689148           0.11041667 Ge 
atom_frac            0.95877046           0.12689148           0.10625000 Ge 
atom_frac            0.89205966           0.07842324           0.10416667 Ge 
atom_frac            0.89205966           0.07842324           0.10000000 Ge 
atom_frac            0.86657841           0.00000000           0.11041667 Ge 
atom_frac            0.86657841           0.00000000           0.10625000 Ge 
atom_frac            0.89205966           0.92157676           0.10416667 Ge 
atom_frac            0.89205966           0.92157676           0.10000000 Ge 
atom_frac            0.95877046           0.87310852           0.11041667 Ge 
atom_frac            0.95877046           0.87310852           0.10625000 Ge 
atom_frac            0.04122954           0.87310852           0.10416667 Ge 
atom_frac            0.04122954           0.87310852           0.10000000 Ge 
atom_frac            0.10794034           0.92157676           0.11041667 Ge 
atom_frac            0.10794034           0.92157676           0.10625000 Ge 
atom_frac            0.13342159           0.00000000           0.10416667 Ge 
atom_frac            0.13342159           0.00000000           0.11250000 Ge 
atom_frac            0.10794034           0.07842324           0.12291667 Ge 
atom_frac            0.10794034           0.07842324           0.11875000 Ge 
atom_frac            0.04122954           0.12689148           0.11666667 Ge 
atom_frac            0.04122954           0.12689148           0.11250000 Ge 
atom_frac            0.95877046           0.12689148           0.12291667 Ge 
atom_frac            0.95877046           0.12689148           0.11875000 Ge 
atom_frac            0.89205966           0.07842324           0.11666667 Ge 
atom_frac            0.89205966           0.07842324           0.11250000 Ge 
atom_frac            0.86657841           0.00000000           0.12291667 Ge 
atom_frac            0.86657841           0.00000000           0.11875000 Ge 
atom_frac            0.89205966           0.92157676           0.11666667 Ge 
atom_frac            0.89205966           0.92157676           0.11250000 Ge 
atom_frac            0.95877046           0.87310852           0.12291667 Ge 
atom_frac            0.95877046           0.87310852           0.11875000 Ge 
atom_frac            0.04122954           0.87310852           0.11666667 Ge 
atom_frac            0.04122954           0.87310852           0.11250000 Ge 
atom_frac            0.10794034           0.92157676           0.12291667 Ge 
atom_frac            0.10794034           0.92157676           0.11875000 Ge 
atom_frac            0.13342159           0.00000000           0.11666667 Ge 
atom_frac            0.13342159           0.00000000           0.12500000 Ge 
atom_frac            0.10794034           0.07842324           0.13541667 Ge 
atom_frac            0.10794034           0.07842324           0.13125000 Ge 
atom_frac            0.04122954           0.12689148           0.12916667 Ge 
atom_frac            0.04122954           0.12689148           0.12500000 Ge 
atom_frac            0.95877046           0.12689148           0.13541667 Ge 
atom_frac            0.95877046           0.12689148           0.13125000 Ge 
atom_frac            0.89205966           0.07842324           0.12916667 Ge 
atom_frac            0.89205966           0.07842324           0.12500000 Ge 
atom_frac            0.86657841           0.00000000           0.13541667 Ge 
atom_frac            0.86657841           0.00000000           0.13125000 Ge 
atom_frac            0.89205966           0.92157676           0.12916667 Ge 
atom_frac            0.89205966           0.92157676           0.12500000 Ge 
atom_frac            0.95877046           0.87310852           0.13541667 Ge 
atom_frac            0.95877046           0.87310852           0.13125000 Ge 
atom_frac            0.04122954           0.87310852           0.12916667 Ge 
atom_frac            0.04122954           0.87310852           0.12500000 Ge 
atom_frac            0.10794034           0.92157676           0.13541667 Ge 
atom_frac            0.10794034           0.92157676           0.13125000 Ge 
atom_frac            0.13342159           0.00000000           0.12916667 Ge 
atom_frac            0.13342159           0.00000000           0.13750000 Ge 
atom_frac            0.10794034           0.07842324           0.14791667 Ge 
atom_frac            0.10794034           0.07842324           0.14375000 Ge 
atom_frac            0.04122954           0.12689148           0.14166667 Ge 
atom_frac            0.04122954           0.12689148           0.13750000 Ge 
atom_frac            0.95877046           0.12689148           0.14791667 Ge 
atom_frac            0.95877046           0.12689148           0.14375000 Ge 
atom_frac            0.89205966           0.07842324           0.14166667 Ge 
atom_frac            0.89205966           0.07842324           0.13750000 Ge 
atom_frac            0.86657841           0.00000000           0.14791667 Ge 
atom_frac            0.86657841           0.00000000           0.14375000 Ge 
atom_frac            0.89205966           0.92157676           0.14166667 Ge 
atom_frac            0.89205966           0.92157676           0.13750000 Ge 
atom_frac            0.95877046           0.87310852           0.14791667 Ge 
atom_frac            0.95877046           0.87310852           0.14375000 Ge 
atom_frac            0.04122954           0.87310852           0.14166667 Ge 
atom_frac            0.04122954           0.87310852           0.13750000 Ge 
atom_frac            0.10794034           0.92157676           0.14791667 Ge 
atom_frac            0.10794034           0.92157676           0.14375000 Ge 
atom_frac            0.13342159           0.00000000           0.14166667 Ge 
atom_frac            0.13342159           0.00000000           0.15000000 Ge 
atom_frac            0.10794034           0.07842324           0.16041667 Ge 
atom_frac            0.10794034           0.07842324           0.15625000 Ge 
atom_frac            0.04122954           0.12689148           0.15416667 Ge 
atom_frac            0.04122954           0.12689148           0.15000000 Ge 
atom_frac            0.95877046           0.12689148           0.16041667 Ge 
atom_frac            0.95877046           0.12689148           0.15625000 Ge 
atom_frac            0.89205966           0.07842324           0.15416667 Ge 
atom_frac            0.89205966           0.07842324           0.15000000 Ge 
atom_frac            0.86657841           0.00000000           0.16041667 Ge 
atom_frac            0.86657841           0.00000000           0.15625000 Ge 
atom_frac            0.89205966           0.92157676           0.15416667 Ge 
atom_frac            0.89205966           0.92157676           0.15000000 Ge 
atom_frac            0.95877046           0.87310852           0.16041667 Ge 
atom_frac            0.95877046           0.87310852           0.15625000 Ge 
atom_frac            0.04122954           0.87310852           0.15416667 Ge 
atom_frac            0.04122954           0.87310852           0.15000000 Ge 
atom_frac            0.10794034           0.92157676           0.16041667 Ge 
atom_frac            0.10794034           0.92157676           0.15625000 Ge 
atom_frac            0.13342159           0.00000000           0.15416667 Ge 
atom_frac            0.13342159           0.00000000           0.16250000 Ge 
atom_frac            0.10794034           0.07842324           0.17291667 Ge 
atom_frac            0.10794034           0.07842324           0.16875000 Ge 
atom_frac            0.04122954           0.12689148           0.16666667 Ge 
atom_frac            0.04122954           0.12689148           0.16250000 Ge 
atom_frac            0.95877046           0.12689148           0.17291667 Ge 
atom_frac            0.95877046           0.12689148           0.16875000 Ge 
atom_frac            0.89205966           0.07842324           0.16666667 Ge 
atom_frac            0.89205966           0.07842324           0.16250000 Ge 
atom_frac            0.86657841           0.00000000           0.17291667 Ge 
atom_frac            0.86657841           0.00000000           0.16875000 Ge 
atom_frac            0.89205966           0.92157676           0.16666667 Ge 
atom_frac            0.89205966           0.92157676           0.16250000 Ge 
atom_frac            0.95877046           0.87310852           0.17291667 Ge 
atom_frac            0.95877046           0.87310852           0.16875000 Ge 
atom_frac            0.04122954           0.87310852           0.16666667 Ge 
atom_frac            0.04122954           0.87310852           0.16250000 Ge 
atom_frac            0.10794034           0.92157676           0.17291667 Ge 
atom_frac            0.10794034           0.92157676           0.16875000 Ge 
atom_frac            0.13342159           0.00000000           0.16666667 Ge 
atom_frac            0.13342159           0.00000000           0.17500000 Ge 
atom_frac            0.10794034           0.07842324           0.18541667 Ge 
atom_frac            0.10794034           0.07842324           0.18125000 Ge 
atom_frac            0.04122954           0.12689148           0.17916667 Ge 
atom_frac            0.04122954           0.12689148           0.17500000 Ge 
atom_frac            0.95877046           0.12689148           0.18541667 Ge 
atom_frac            0.95877046           0.12689148           0.18125000 Ge 
atom_frac            0.89205966           0.07842324           0.17916667 Ge 
atom_frac            0.89205966           0.07842324           0.17500000 Ge 
atom_frac            0.86657841           0.00000000           0.18541667 Ge 
atom_frac            0.86657841           0.00000000           0.18125000 Ge 
atom_frac            0.89205966           0.92157676           0.17916667 Ge 
atom_frac            0.89205966           0.92157676           0.17500000 Ge 
atom_frac            0.95877046           0.87310852           0.18541667 Ge 
atom_frac            0.95877046           0.87310852           0.18125000 Ge 
atom_frac            0.04122954           0.87310852           0.17916667 Ge 
atom_frac            0.04122954           0.87310852           0.17500000 Ge 
atom_frac            0.10794034           0.92157676           0.18541667 Ge 
atom_frac            0.10794034           0.92157676           0.18125000 Ge 
atom_frac            0.13342159           0.00000000           0.17916667 Ge 
atom_frac            0.13342159           0.00000000           0.18750000 Ge 
atom_frac            0.10794034           0.07842324           0.19791667 Ge 
atom_frac            0.10794034           0.07842324           0.19375000 Ge 
atom_frac            0.04122954           0.12689148           0.19166667 Ge 
atom_frac            0.04122954           0.12689148           0.18750000 Ge 
atom_frac            0.95877046           0.12689148           0.19791667 Ge 
atom_frac            0.95877046           0.12689148           0.19375000 Ge 
atom_frac            0.89205966           0.07842324           0.19166667 Ge 
atom_frac            0.89205966           0.07842324           0.18750000 Ge 
atom_frac            0.86657841           0.00000000           0.19791667 Ge 
atom_frac            0.86657841           0.00000000           0.19375000 Ge 
atom_frac            0.89205966           0.92157676           0.19166667 Ge 
atom_frac            0.89205966           0.92157676           0.18750000 Ge 
atom_frac            0.95877046           0.87310852           0.19791667 Ge 
atom_frac            0.95877046           0.87310852           0.19375000 Ge 
atom_frac            0.04122954           0.87310852           0.19166667 Ge 
atom_frac            0.04122954           0.87310852           0.18750000 Ge 
atom_frac            0.10794034           0.92157676           0.19791667 Ge 
atom_frac            0.10794034           0.92157676           0.19375000 Ge 
atom_frac            0.13342159           0.00000000           0.19166667 Ge 
atom_frac            0.13342159           0.00000000           0.20000000 Ge 
atom_frac            0.10794034           0.07842324           0.21041667 Ge 
atom_frac            0.10794034           0.07842324           0.20625000 Ge 
atom_frac            0.04122954           0.12689148           0.20416667 Ge 
atom_frac            0.04122954           0.12689148           0.20000000 Ge 
atom_frac            0.95877046           0.12689148           0.21041667 Ge 
atom_frac            0.95877046           0.12689148           0.20625000 Ge 
atom_frac            0.89205966           0.07842324           0.20416667 Ge 
atom_frac            0.89205966           0.07842324           0.20000000 Ge 
atom_frac            0.86657841           0.00000000           0.21041667 Ge 
atom_frac            0.86657841           0.00000000           0.20625000 Ge 
atom_frac            0.89205966           0.92157676           0.20416667 Ge 
atom_frac            0.89205966           0.92157676           0.20000000 Ge 
atom_frac            0.95877046           0.87310852           0.21041667 Ge 
atom_frac            0.95877046           0.87310852           0.20625000 Ge 
atom_frac            0.04122954           0.87310852           0.20416667 Ge 
atom_frac            0.04122954           0.87310852           0.20000000 Ge 
atom_frac            0.10794034           0.92157676           0.21041667 Ge 
atom_frac            0.10794034           0.92157676           0.20625000 Ge 
atom_frac            0.13342159           0.00000000           0.20416667 Ge 
atom_frac            0.13342159           0.00000000           0.21250000 Ge 
atom_frac            0.10794034           0.07842324           0.22291667 Ge 
atom_frac            0.10794034           0.07842324           0.21875000 Ge 
atom_frac            0.04122954           0.12689148           0.21666667 Ge 
atom_frac            0.04122954           0.12689148           0.21250000 Ge 
atom_frac            0.95877046           0.12689148           0.22291667 Ge 
atom_frac            0.95877046           0.12689148           0.21875000 Ge 
atom_frac            0.89205966           0.07842324           0.21666667 Ge 
atom_frac            0.89205966           0.07842324           0.21250000 Ge 
atom_frac            0.86657841           0.00000000           0.22291667 Ge 
atom_frac            0.86657841           0.00000000           0.21875000 Ge 
atom_frac            0.89205966           0.92157676           0.21666667 Ge 
atom_frac            0.89205966           0.92157676           0.21250000 Ge 
atom_frac            0.95877046           0.87310852           0.22291667 Ge 
atom_frac            0.95877046           0.87310852           0.21875000 Ge 
atom_frac            0.04122954           0.87310852           0.21666667 Ge 
atom_frac            0.04122954           0.87310852           0.21250000 Ge 
atom_frac            0.10794034           0.92157676           0.22291667 Ge 
atom_frac            0.10794034           0.92157676           0.21875000 Ge 
atom_frac            0.13342159           0.00000000           0.21666667 Ge 
atom_frac            0.13342159           0.00000000           0.22500000 Ge 
atom_frac            0.10794034           0.07842324           0.23541667 Ge 
atom_frac            0.10794034           0.07842324           0.23125000 Ge 
atom_frac            0.04122954           0.12689148           0.22916667 Ge 
atom_frac            0.04122954           0.12689148           0.22500000 Ge 
atom_frac            0.95877046           0.12689148           0.23541667 Ge 
atom_frac            0.95877046           0.12689148           0.23125000 Ge 
atom_frac            0.89205966           0.07842324           0.22916667 Ge 
atom_frac            0.89205966           0.07842324           0.22500000 Ge 
atom_frac            0.86657841           0.00000000           0.23541667 Ge 
atom_frac            0.86657841           0.00000000           0.23125000 Ge 
atom_frac            0.89205966           0.92157676           0.22916667 Ge 
atom_frac            0.89205966           0.92157676           0.22500000 Ge 
atom_frac            0.95877046           0.87310852           0.23541667 Ge 
atom_frac            0.95877046           0.87310852           0.23125000 Ge 
atom_frac            0.04122954           0.87310852           0.22916667 Ge 
atom_frac            0.04122954           0.87310852           0.22500000 Ge 
atom_frac            0.10794034           0.92157676           0.23541667 Ge 
atom_frac            0.10794034           0.92157676           0.23125000 Ge 
atom_frac            0.13342159           0.00000000           0.22916667 Ge 
atom_frac            0.13342159           0.00000000           0.23750000 Ge 