lattice_vector           25.00000000           0.00000000           0.00000000
lattice_vector            0.00000000          25.00000000           0.00000000
lattice_vector            0.00000000           0.00000000        1161.60000000

atom_frac            0.13342159           0.00000000           0.00000000 Ge 
atom_frac            0.10794034           0.07842324           0.00520833 Ge 
atom_frac            0.10794034           0.07842324           0.00312500 Ge 
atom_frac            0.04122954           0.12689148           0.00208333 Ge 
atom_frac            0.04122954           0.12689148           0.00000000 Ge 
atom_frac            0.95877046           0.12689148           0.00520833 Ge 
atom_frac            0.95877046           0.12689148           0.00312500 Ge 
atom_frac            0.89205966           0.07842324           0.00208333 Ge 
atom_frac            0.89205966           0.07842324           0.00000000 Ge 
atom_frac            0.86657841           0.00000000           0.00520833 Ge 
atom_frac            0.86657841           0.00000000           0.00312500 Ge 
atom_frac            0.89205966           0.92157676           0.00208333 Ge 
atom_frac            0.89205966           0.92157676           0.00000000 Ge 
atom_frac            0.95877046           0.87310852           0.00520833 Ge 
atom_frac            0.95877046           0.87310852           0.00312500 Ge 
atom_frac            0.04122954           0.87310852           0.00208333 Ge 
atom_frac            0.04122954           0.87310852           0.00000000 Ge 
atom_frac            0.10794034           0.92157676           0.00520833 Ge 
atom_frac            0.10794034           0.92157676           0.00312500 Ge 
atom_frac            0.13342159           0.00000000           0.00208333 Ge 
atom_frac            0.13342159           0.00000000           0.00625000 Ge 
atom_frac            0.10794034           0.07842324           0.01145833 Ge 
atom_frac            0.10794034           0.07842324           0.00937500 Ge 
atom_frac            0.04122954           0.12689148           0.00833333 Ge 
atom_frac            0.04122954           0.12689148           0.00625000 Ge 
atom_frac            0.95877046           0.12689148           0.01145833 Ge 
atom_frac            0.95877046           0.12689148           0.00937500 Ge 
atom_frac            0.89205966           0.07842324           0.00833333 Ge 
atom_frac            0.89205966           0.07842324           0.00625000 Ge 
atom_frac            0.86657841           0.00000000           0.01145833 Ge 
atom_frac            0.86657841           0.00000000           0.00937500 Ge 
atom_frac            0.89205966           0.92157676           0.00833333 Ge 
atom_frac            0.89205966           0.92157676           0.00625000 Ge 
atom_frac            0.95877046           0.87310852           0.01145833 Ge 
atom_frac            0.95877046           0.87310852           0.00937500 Ge 
atom_frac            0.04122954           0.87310852           0.00833333 Ge 
atom_frac            0.04122954           0.87310852           0.00625000 Ge 
atom_frac            0.10794034           0.92157676           0.01145833 Ge 
atom_frac            0.10794034           0.92157676           0.00937500 Ge 
atom_frac            0.13342159           0.00000000           0.00833333 Ge 
atom_frac            0.13342159           0.00000000           0.01250000 Ge 
atom_frac            0.10794034           0.07842324           0.01770833 Ge 
atom_frac            0.10794034           0.07842324           0.01562500 Ge 
atom_frac            0.04122954           0.12689148           0.01458333 Ge 
atom_frac            0.04122954           0.12689148           0.01250000 Ge 
atom_frac            0.95877046           0.12689148           0.01770833 Ge 
atom_frac            0.95877046           0.12689148           0.01562500 Ge 
atom_frac            0.89205966           0.07842324           0.01458333 Ge 
atom_frac            0.89205966           0.07842324           0.01250000 Ge 
atom_frac            0.86657841           0.00000000           0.01770833 Ge 
atom_frac            0.86657841           0.00000000           0.01562500 Ge 
atom_frac            0.89205966           0.92157676           0.01458333 Ge 
atom_frac            0.89205966           0.92157676           0.01250000 Ge 
atom_frac            0.95877046           0.87310852           0.01770833 Ge 
atom_frac            0.95877046           0.87310852           0.01562500 Ge 
atom_frac            0.04122954           0.87310852           0.01458333 Ge 
atom_frac            0.04122954           0.87310852           0.01250000 Ge 
atom_frac            0.10794034           0.92157676           0.01770833 Ge 
atom_frac            0.10794034           0.92157676           0.01562500 Ge 
atom_frac            0.13342159           0.00000000           0.01458333 Ge 
atom_frac            0.13342159           0.00000000           0.01875000 Ge 
atom_frac            0.10794034           0.07842324           0.02395833 Ge 
atom_frac            0.10794034           0.07842324           0.02187500 Ge 
atom_frac            0.04122954           0.12689148           0.02083333 Ge 
atom_frac            0.04122954           0.12689148           0.01875000 Ge 
atom_frac            0.95877046           0.12689148           0.02395833 Ge 
atom_frac            0.95877046           0.12689148           0.02187500 Ge 
atom_frac            0.89205966           0.07842324           0.02083333 Ge 
atom_frac            0.89205966           0.07842324           0.01875000 Ge 
atom_frac            0.86657841           0.00000000           0.02395833 Ge 
atom_frac            0.86657841           0.00000000           0.02187500 Ge 
atom_frac            0.89205966           0.92157676           0.02083333 Ge 
atom_frac            0.89205966           0.92157676           0.01875000 Ge 
atom_frac            0.95877046           0.87310852           0.02395833 Ge 
atom_frac            0.95877046           0.87310852           0.02187500 Ge 
atom_frac            0.04122954           0.87310852           0.02083333 Ge 
atom_frac            0.04122954           0.87310852           0.01875000 Ge 
atom_frac            0.10794034           0.92157676           0.02395833 Ge 
atom_frac            0.10794034           0.92157676           0.02187500 Ge 
atom_frac            0.13342159           0.00000000           0.02083333 Ge 
atom_frac            0.13342159           0.00000000           0.02500000 Ge 
atom_frac            0.10794034           0.07842324           0.03020833 Ge 
atom_frac            0.10794034           0.07842324           0.02812500 Ge 
atom_frac            0.04122954           0.12689148           0.02708333 Ge 
atom_frac            0.04122954           0.12689148           0.02500000 Ge 
atom_frac            0.95877046           0.12689148           0.03020833 Ge 
atom_frac            0.95877046           0.12689148           0.02812500 Ge 
atom_frac            0.89205966           0.07842324           0.02708333 Ge 
atom_frac            0.89205966           0.07842324           0.02500000 Ge 
atom_frac            0.86657841           0.00000000           0.03020833 Ge 
atom_frac            0.86657841           0.00000000           0.02812500 Ge 
atom_frac            0.89205966           0.92157676           0.02708333 Ge 
atom_frac            0.89205966           0.92157676           0.02500000 Ge 
atom_frac            0.95877046           0.87310852           0.03020833 Ge 
atom_frac            0.95877046           0.87310852           0.02812500 Ge 
atom_frac            0.04122954           0.87310852           0.02708333 Ge 
atom_frac            0.04122954           0.87310852           0.02500000 Ge 
atom_frac            0.10794034           0.92157676           0.03020833 Ge 
atom_frac            0.10794034           0.92157676           0.02812500 Ge 
atom_frac            0.13342159           0.00000000           0.02708333 Ge 
atom_frac            0.13342159           0.00000000           0.03125000 Ge 
atom_frac            0.10794034           0.07842324           0.03645833 Ge 
atom_frac            0.10794034           0.07842324           0.03437500 Ge 
atom_frac            0.04122954           0.12689148           0.03333333 Ge 
atom_frac            0.04122954           0.12689148           0.03125000 Ge 
atom_frac            0.95877046           0.12689148           0.03645833 Ge 
atom_frac            0.95877046           0.12689148           0.03437500 Ge 
atom_frac            0.89205966           0.07842324           0.03333333 Ge 
atom_frac            0.89205966           0.07842324           0.03125000 Ge 
atom_frac            0.86657841           0.00000000           0.03645833 Ge 
atom_frac            0.86657841           0.00000000           0.03437500 Ge 
atom_frac            0.89205966           0.92157676           0.03333333 Ge 
atom_frac            0.89205966           0.92157676           0.03125000 Ge 
atom_frac            0.95877046           0.87310852           0.03645833 Ge 
atom_frac            0.95877046           0.87310852           0.03437500 Ge 
atom_frac            0.04122954           0.87310852           0.03333333 Ge 
atom_frac            0.04122954           0.87310852           0.03125000 Ge 
atom_frac            0.10794034           0.92157676           0.03645833 Ge 
atom_frac            0.10794034           0.92157676           0.03437500 Ge 
atom_frac            0.13342159           0.00000000           0.03333333 Ge 
atom_frac            0.13342159           0.00000000           0.03750000 Ge 
atom_frac            0.10794034           0.07842324           0.04270833 Ge 
atom_frac            0.10794034           0.07842324           0.04062500 Ge 
atom_frac            0.04122954           0.12689148           0.03958333 Ge 
atom_frac            0.04122954           0.12689148           0.03750000 Ge 
atom_frac            0.95877046           0.12689148           0.04270833 Ge 
atom_frac            0.95877046           0.12689148           0.04062500 Ge 
atom_frac            0.89205966           0.07842324           0.03958333 Ge 
atom_frac            0.89205966           0.07842324           0.03750000 Ge 
atom_frac            0.86657841           0.00000000           0.04270833 Ge 
atom_frac            0.86657841           0.00000000           0.04062500 Ge 
atom_frac            0.89205966           0.92157676           0.03958333 Ge 
atom_frac            0.89205966           0.92157676           0.03750000 Ge 
atom_frac            0.95877046           0.87310852           0.04270833 Ge 
atom_frac            0.95877046           0.87310852           0.04062500 Ge 
atom_frac            0.04122954           0.87310852           0.03958333 Ge 
atom_frac            0.04122954           0.87310852           0.03750000 Ge 
atom_frac            0.10794034           0.92157676           0.04270833 Ge 
atom_frac            0.10794034           0.92157676           0.04062500 Ge 
atom_frac            0.13342159           0.00000000           0.03958333 Ge 
atom_frac            0.13342159           0.00000000           0.04375000 Ge 
atom_frac            0.10794034           0.07842324           0.04895833 Ge 
atom_frac            0.10794034           0.07842324           0.04687500 Ge 
atom_frac            0.04122954           0.12689148           0.04583333 Ge 
atom_frac            0.04122954           0.12689148           0.04375000 Ge 
atom_frac            0.95877046           0.12689148           0.04895833 Ge 
atom_frac            0.95877046           0.12689148           0.04687500 Ge 
atom_frac            0.89205966           0.07842324           0.04583333 Ge 
atom_frac            0.89205966           0.07842324           0.04375000 Ge 
atom_frac            0.86657841           0.00000000           0.04895833 Ge 
atom_frac            0.86657841           0.00000000           0.04687500 Ge 
atom_frac            0.89205966           0.92157676           0.04583333 Ge 
atom_frac            0.89205966           0.92157676           0.04375000 Ge 
atom_frac            0.95877046           0.87310852           0.04895833 Ge 
atom_frac            0.95877046           0.87310852           0.04687500 Ge 
atom_frac            0.04122954           0.87310852           0.04583333 Ge 
atom_frac            0.04122954           0.87310852           0.04375000 Ge 
atom_frac            0.10794034           0.92157676           0.04895833 Ge 
atom_frac            0.10794034           0.92157676           0.04687500 Ge 
atom_frac            0.13342159           0.00000000           0.04583333 Ge 
atom_frac            0.13342159           0.00000000           0.05000000 Ge 
atom_frac            0.10794034           0.07842324           0.05520833 Ge 
atom_frac            0.10794034           0.07842324           0.05312500 Ge 
atom_frac            0.04122954           0.12689148           0.05208333 Ge 
atom_frac            0.04122954           0.12689148           0.05000000 Ge 
atom_frac            0.95877046           0.12689148           0.05520833 Ge 
atom_frac            0.95877046           0.12689148           0.05312500 Ge 
atom_frac            0.89205966           0.07842324           0.05208333 Ge 
atom_frac            0.89205966           0.07842324           0.05000000 Ge 
atom_frac            0.86657841           0.00000000           0.05520833 Ge 
atom_frac            0.86657841           0.00000000           0.05312500 Ge 
atom_frac            0.89205966           0.92157676           0.05208333 Ge 
atom_frac            0.89205966           0.92157676           0.05000000 Ge 
atom_frac            0.95877046           0.87310852           0.05520833 Ge 
atom_frac            0.95877046           0.87310852           0.05312500 Ge 
atom_frac            0.04122954           0.87310852           0.05208333 Ge 
atom_frac            0.04122954           0.87310852           0.05000000 Ge 
atom_frac            0.10794034           0.92157676           0.05520833 Ge 
atom_frac            0.10794034           0.92157676           0.05312500 Ge 
atom_frac            0.13342159           0.00000000           0.05208333 Ge 
atom_frac            0.13342159           0.00000000           0.05625000 Ge 
atom_frac            0.10794034           0.07842324           0.06145833 Ge 
atom_frac            0.10794034           0.07842324           0.05937500 Ge 
atom_frac            0.04122954           0.12689148           0.05833333 Ge 
atom_frac            0.04122954           0.12689148           0.05625000 Ge 
atom_frac            0.95877046           0.12689148           0.06145833 Ge 
atom_frac            0.95877046           0.12689148           0.05937500 Ge 
atom_frac            0.89205966           0.07842324           0.05833333 Ge 
atom_frac            0.89205966           0.07842324           0.05625000 Ge 
atom_frac            0.86657841           0.00000000           0.06145833 Ge 
atom_frac            0.86657841           0.00000000           0.05937500 Ge 
atom_frac            0.89205966           0.92157676           0.05833333 Ge 
atom_frac            0.89205966           0.92157676           0.05625000 Ge 
atom_frac            0.95877046           0.87310852           0.06145833 Ge 
atom_frac            0.95877046           0.87310852           0.05937500 Ge 
atom_frac            0.04122954           0.87310852           0.05833333 Ge 
atom_frac            0.04122954           0.87310852           0.05625000 Ge 
atom_frac            0.10794034           0.92157676           0.06145833 Ge 
atom_frac            0.10794034           0.92157676           0.05937500 Ge 
atom_frac            0.13342159           0.00000000           0.05833333 Ge 
atom_frac            0.13342159           0.00000000           0.06250000 Ge 
atom_frac            0.10794034           0.07842324           0.06770833 Ge 
atom_frac            0.10794034           0.07842324           0.06562500 Ge 
atom_frac            0.04122954           0.12689148           0.06458333 Ge 
atom_frac            0.04122954           0.12689148           0.06250000 Ge 
atom_frac            0.95877046           0.12689148           0.06770833 Ge 
atom_frac            0.95877046           0.12689148           0.06562500 Ge 
atom_frac            0.89205966           0.07842324           0.06458333 Ge 
atom_frac            0.89205966           0.07842324           0.06250000 Ge 
atom_frac            0.86657841           0.00000000           0.06770833 Ge 
atom_frac            0.86657841           0.00000000           0.06562500 Ge 
atom_frac            0.89205966           0.92157676           0.06458333 Ge 
atom_frac            0.89205966           0.92157676           0.06250000 Ge 
atom_frac            0.95877046           0.87310852           0.06770833 Ge 
atom_frac            0.95877046           0.87310852           0.06562500 Ge 
atom_frac            0.04122954           0.87310852           0.06458333 Ge 
atom_frac            0.04122954           0.87310852           0.06250000 Ge 
atom_frac            0.10794034           0.92157676           0.06770833 Ge 
atom_frac            0.10794034           0.92157676           0.06562500 Ge 
atom_frac            0.13342159           0.00000000           0.06458333 Ge 
atom_frac            0.13342159           0.00000000           0.06875000 Ge 
atom_frac            0.10794034           0.07842324           0.07395833 Ge 
atom_frac            0.10794034           0.07842324           0.07187500 Ge 
atom_frac            0.04122954           0.12689148           0.07083333 Ge 
atom_frac            0.04122954           0.12689148           0.06875000 Ge 
atom_frac            0.95877046           0.12689148           0.07395833 Ge 
atom_frac            0.95877046           0.12689148           0.07187500 Ge 
atom_frac            0.89205966           0.07842324           0.07083333 Ge 
atom_frac            0.89205966           0.07842324           0.06875000 Ge 
atom_frac            0.86657841           0.00000000           0.07395833 Ge 
atom_frac            0.86657841           0.00000000           0.07187500 Ge 
atom_frac            0.89205966           0.92157676           0.07083333 Ge 
atom_frac            0.89205966           0.92157676           0.06875000 Ge 
atom_frac            0.95877046           0.87310852           0.07395833 Ge 
atom_frac            0.95877046           0.87310852           0.07187500 Ge 
atom_frac            0.04122954           0.87310852           0.07083333 Ge 
atom_frac            0.04122954           0.87310852           0.06875000 Ge 
atom_frac            0.10794034           0.92157676           0.07395833 Ge 
atom_frac            0.10794034           0.92157676           0.07187500 Ge 
atom_frac            0.13342159           0.00000000           0.07083333 Ge 
atom_frac            0.13342159           0.00000000           0.07500000 Ge 
atom_frac            0.10794034           0.07842324           0.08020833 Ge 
atom_frac            0.10794034           0.07842324           0.07812500 Ge 
atom_frac            0.04122954           0.12689148           0.07708333 Ge 
atom_frac            0.04122954           0.12689148           0.07500000 Ge 
atom_frac            0.95877046           0.12689148           0.08020833 Ge 
atom_frac            0.95877046           0.12689148           0.07812500 Ge 
atom_frac            0.89205966           0.07842324           0.07708333 Ge 
atom_frac            0.89205966           0.07842324           0.07500000 Ge 
atom_frac            0.86657841           0.00000000           0.08020833 Ge 
atom_frac            0.86657841           0.00000000           0.07812500 Ge 
atom_frac            0.89205966           0.92157676           0.07708333 Ge 
atom_frac            0.89205966           0.92157676           0.07500000 Ge 
atom_frac            0.95877046           0.87310852           0.08020833 Ge 
atom_frac            0.95877046           0.87310852           0.07812500 Ge 
atom_frac            0.04122954           0.87310852           0.07708333 Ge 
atom_frac            0.04122954           0.87310852           0.07500000 Ge 
atom_frac            0.10794034           0.92157676           0.08020833 Ge 
atom_frac            0.10794034           0.92157676           0.07812500 Ge 
atom_frac            0.13342159           0.00000000           0.07708333 Ge 
atom_frac            0.13342159           0.00000000           0.08125000 Ge 
atom_frac            0.10794034           0.07842324           0.08645833 Ge 
atom_frac            0.10794034           0.07842324           0.08437500 Ge 
atom_frac            0.04122954           0.12689148           0.08333333 Ge 
atom_frac            0.04122954           0.12689148           0.08125000 Ge 
atom_frac            0.95877046           0.12689148           0.08645833 Ge 
atom_frac            0.95877046           0.12689148           0.08437500 Ge 
atom_frac            0.89205966           0.07842324           0.08333333 Ge 
atom_frac            0.89205966           0.07842324           0.08125000 Ge 
atom_frac            0.86657841           0.00000000           0.08645833 Ge 
atom_frac            0.86657841           0.00000000           0.08437500 Ge 
atom_frac            0.89205966           0.92157676           0.08333333 Ge 
atom_frac            0.89205966           0.92157676           0.08125000 Ge 
atom_frac            0.95877046           0.87310852           0.08645833 Ge 
atom_frac            0.95877046           0.87310852           0.08437500 Ge 
atom_frac            0.04122954           0.87310852           0.08333333 Ge 
atom_frac            0.04122954           0.87310852           0.08125000 Ge 
atom_frac            0.10794034           0.92157676           0.08645833 Ge 
atom_frac            0.10794034           0.92157676           0.08437500 Ge 
atom_frac            0.13342159           0.00000000           0.08333333 Ge 
atom_frac            0.13342159           0.00000000           0.08750000 Ge 
atom_frac            0.10794034           0.07842324           0.09270833 Ge 
atom_frac            0.10794034           0.07842324           0.09062500 Ge 
atom_frac            0.04122954           0.12689148           0.08958333 Ge 
atom_frac            0.04122954           0.12689148           0.08750000 Ge 
atom_frac            0.95877046           0.12689148           0.09270833 Ge 
atom_frac            0.95877046           0.12689148           0.09062500 Ge 
atom_frac            0.89205966           0.07842324           0.08958333 Ge 
atom_frac            0.89205966           0.07842324           0.08750000 Ge 
atom_frac            0.86657841           0.00000000           0.09270833 Ge 
atom_frac            0.86657841           0.00000000           0.09062500 Ge 
atom_frac            0.89205966           0.92157676           0.08958333 Ge 
atom_frac            0.89205966           0.92157676           0.08750000 Ge 
atom_frac            0.95877046           0.87310852           0.09270833 Ge 
atom_frac            0.95877046           0.87310852           0.09062500 Ge 
atom_frac            0.04122954           0.87310852           0.08958333 Ge 
atom_frac            0.04122954           0.87310852           0.08750000 Ge 
atom_frac            0.10794034           0.92157676           0.09270833 Ge 
atom_frac            0.10794034           0.92157676           0.09062500 Ge 
atom_frac            0.13342159           0.00000000           0.08958333 Ge 
atom_frac            0.13342159           0.00000000           0.09375000 Ge 
atom_frac            0.10794034           0.07842324           0.09895833 Ge 
atom_frac            0.10794034           0.07842324           0.09687500 Ge 
atom_frac            0.04122954           0.12689148           0.09583333 Ge 
atom_frac            0.04122954           0.12689148           0.09375000 Ge 
atom_frac            0.95877046           0.12689148           0.09895833 Ge 
atom_frac            0.95877046           0.12689148           0.09687500 Ge 
atom_frac            0.89205966           0.07842324           0.09583333 Ge 
atom_frac            0.89205966           0.07842324           0.09375000 Ge 
atom_frac            0.86657841           0.00000000           0.09895833 Ge 
atom_frac            0.86657841           0.00000000           0.09687500 Ge 
atom_frac            0.89205966           0.92157676           0.09583333 Ge 
atom_frac            0.89205966           0.92157676           0.09375000 Ge 
atom_frac            0.95877046           0.87310852           0.09895833 Ge 
atom_frac            0.95877046           0.87310852           0.09687500 Ge 
atom_frac            0.04122954           0.87310852           0.09583333 Ge 
atom_frac            0.04122954           0.87310852           0.09375000 Ge 
atom_frac            0.10794034           0.92157676           0.09895833 Ge 
atom_frac            0.10794034           0.92157676           0.09687500 Ge 
atom_frac            0.13342159           0.00000000           0.09583333 Ge 
atom_frac            0.13342159           0.00000000           0.10000000 Ge 
atom_frac            0.10794034           0.07842324           0.10520833 Ge 
atom_frac            0.10794034           0.07842324           0.10312500 Ge 
atom_frac            0.04122954           0.12689148           0.10208333 Ge 
atom_frac            0.04122954           0.12689148           0.10000000 Ge 
atom_frac            0.95877046           0.12689148           0.10520833 Ge 
atom_frac            0.95877046           0.12689148           0.10312500 Ge 
atom_frac            0.89205966           0.07842324           0.10208333 Ge 
atom_frac            0.89205966           0.07842324           0.10000000 Ge 
atom_frac            0.86657841           0.00000000           0.10520833 Ge 
atom_frac            0.86657841           0.00000000           0.10312500 Ge 
atom_frac            0.89205966           0.92157676           0.10208333 Ge 
atom_frac            0.89205966           0.92157676           0.10000000 Ge 
atom_frac            0.95877046           0.87310852           0.10520833 Ge 
atom_frac            0.95877046           0.87310852           0.10312500 Ge 
atom_frac            0.04122954           0.87310852           0.10208333 Ge 
atom_frac            0.04122954           0.87310852           0.10000000 Ge 
atom_frac            0.10794034           0.92157676           0.10520833 Ge 
atom_frac            0.10794034           0.92157676           0.10312500 Ge 
atom_frac            0.13342159           0.00000000           0.10208333 Ge 
atom_frac            0.13342159           0.00000000           0.10625000 Ge 
atom_frac            0.10794034           0.07842324           0.11145833 Ge 
atom_frac            0.10794034           0.07842324           0.10937500 Ge 
atom_frac            0.04122954           0.12689148           0.10833333 Ge 
atom_frac            0.04122954           0.12689148           0.10625000 Ge 
atom_frac            0.95877046           0.12689148           0.11145833 Ge 
atom_frac            0.95877046           0.12689148           0.10937500 Ge 
atom_frac            0.89205966           0.07842324           0.10833333 Ge 
atom_frac            0.89205966           0.07842324           0.10625000 Ge 
atom_frac            0.86657841           0.00000000           0.11145833 Ge 
atom_frac            0.86657841           0.00000000           0.10937500 Ge 
atom_frac            0.89205966           0.92157676           0.10833333 Ge 
atom_frac            0.89205966           0.92157676           0.10625000 Ge 
atom_frac            0.95877046           0.87310852           0.11145833 Ge 
atom_frac            0.95877046           0.87310852           0.10937500 Ge 
atom_frac            0.04122954           0.87310852           0.10833333 Ge 
atom_frac            0.04122954           0.87310852           0.10625000 Ge 
atom_frac            0.10794034           0.92157676           0.11145833 Ge 
atom_frac            0.10794034           0.92157676           0.10937500 Ge 
atom_frac            0.13342159           0.00000000           0.10833333 Ge 
atom_frac            0.13342159           0.00000000           0.11250000 Ge 
atom_frac            0.10794034           0.07842324           0.11770833 Ge 
atom_frac            0.10794034           0.07842324           0.11562500 Ge 
atom_frac            0.04122954           0.12689148           0.11458333 Ge 
atom_frac            0.04122954           0.12689148           0.11250000 Ge 
atom_frac            0.95877046           0.12689148           0.11770833 Ge 
atom_frac            0.95877046           0.12689148           0.11562500 Ge 
atom_frac            0.89205966           0.07842324           0.11458333 Ge 
atom_frac            0.89205966           0.07842324           0.11250000 Ge 
atom_frac            0.86657841           0.00000000           0.11770833 Ge 
atom_frac            0.86657841           0.00000000           0.11562500 Ge 
atom_frac            0.89205966           0.92157676           0.11458333 Ge 
atom_frac            0.89205966           0.92157676           0.11250000 Ge 
atom_frac            0.95877046           0.87310852           0.11770833 Ge 
atom_frac            0.95877046           0.87310852           0.11562500 Ge 
atom_frac            0.04122954           0.87310852           0.11458333 Ge 
atom_frac            0.04122954           0.87310852           0.11250000 Ge 
atom_frac            0.10794034           0.92157676           0.11770833 Ge 
atom_frac            0.10794034           0.92157676           0.11562500 Ge 
atom_frac            0.13342159           0.00000000           0.11458333 Ge 
atom_frac            0.13342159           0.00000000           0.11875000 Ge 