lattice_vector           25.00000000           0.00000000           0.00000000
lattice_vector            0.00000000          25.00000000           0.00000000
lattice_vector            0.00000000           0.00000000         145.20000000

atom_frac            0.13342159           0.00000000           0.00000000 Ge 
atom_frac            0.10794034           0.07842324           0.04166667 Ge 
atom_frac            0.10794034           0.07842324           0.02500000 Ge 
atom_frac            0.04122954           0.12689148           0.01666667 Ge 
atom_frac            0.04122954           0.12689148           0.00000000 Ge 
atom_frac            0.95877046           0.12689148           0.04166667 Ge 
atom_frac            0.95877046           0.12689148           0.02500000 Ge 
atom_frac            0.89205966           0.07842324           0.01666667 Ge 
atom_frac            0.89205966           0.07842324           0.00000000 Ge 
atom_frac            0.86657841           0.00000000           0.04166667 Ge 
atom_frac            0.86657841           0.00000000           0.02500000 Ge 
atom_frac            0.89205966           0.92157676           0.01666667 Ge 
atom_frac            0.89205966           0.92157676           0.00000000 Ge 
atom_frac            0.95877046           0.87310852           0.04166667 Ge 
atom_frac            0.95877046           0.87310852           0.02500000 Ge 
atom_frac            0.04122954           0.87310852           0.01666667 Ge 
atom_frac            0.04122954           0.87310852           0.00000000 Ge 
atom_frac            0.10794034           0.92157676           0.04166667 Ge 
atom_frac            0.10794034           0.92157676           0.02500000 Ge 
atom_frac            0.13342159           0.00000000           0.01666667 Ge 
atom_frac            0.13342159           0.00000000           0.05000000 Ge 
atom_frac            0.10794034           0.07842324           0.09166667 Ge 
atom_frac            0.10794034           0.07842324           0.07500000 Ge 
atom_frac            0.04122954           0.12689148           0.06666667 Ge 
atom_frac            0.04122954           0.12689148           0.05000000 Ge 
atom_frac            0.95877046           0.12689148           0.09166667 Ge 
atom_frac            0.95877046           0.12689148           0.07500000 Ge 
atom_frac            0.89205966           0.07842324           0.06666667 Ge 
atom_frac            0.89205966           0.07842324           0.05000000 Ge 
atom_frac            0.86657841           0.00000000           0.09166667 Ge 
atom_frac            0.86657841           0.00000000           0.07500000 Ge 
atom_frac            0.89205966           0.92157676           0.06666667 Ge 
atom_frac            0.89205966           0.92157676           0.05000000 Ge 
atom_frac            0.95877046           0.87310852           0.09166667 Ge 
atom_frac            0.95877046           0.87310852           0.07500000 Ge 
atom_frac            0.04122954           0.87310852           0.06666667 Ge 
atom_frac            0.04122954           0.87310852           0.05000000 Ge 
atom_frac            0.10794034           0.92157676           0.09166667 Ge 
atom_frac            0.10794034           0.92157676           0.07500000 Ge 
atom_frac            0.13342159           0.00000000           0.06666667 Ge 
atom_frac            0.13342159           0.00000000           0.10000000 Ge 
atom_frac            0.10794034           0.07842324           0.14166667 Ge 
atom_frac            0.10794034           0.07842324           0.12500000 Ge 
atom_frac            0.04122954           0.12689148           0.11666667 Ge 
atom_frac            0.04122954           0.12689148           0.10000000 Ge 
atom_frac            0.95877046           0.12689148           0.14166667 Ge 
atom_frac            0.95877046           0.12689148           0.12500000 Ge 
atom_frac            0.89205966           0.07842324           0.11666667 Ge 
atom_frac            0.89205966           0.07842324           0.10000000 Ge 
atom_frac            0.86657841           0.00000000           0.14166667 Ge 
atom_frac            0.86657841           0.00000000           0.12500000 Ge 
atom_frac            0.89205966           0.92157676           0.11666667 Ge 
atom_frac            0.89205966           0.92157676           0.10000000 Ge 
atom_frac            0.95877046           0.87310852           0.14166667 Ge 
atom_frac            0.95877046           0.87310852           0.12500000 Ge 
atom_frac            0.04122954           0.87310852           0.11666667 Ge 
atom_frac            0.04122954           0.87310852           0.10000000 Ge 
atom_frac            0.10794034           0.92157676           0.14166667 Ge 
atom_frac            0.10794034           0.92157676           0.12500000 Ge 
atom_frac            0.13342159           0.00000000           0.11666667 Ge 
atom_frac            0.13342159           0.00000000           0.15000000 Ge 
atom_frac            0.10794034           0.07842324           0.19166667 Ge 
atom_frac            0.10794034           0.07842324           0.17500000 Ge 
atom_frac            0.04122954           0.12689148           0.16666667 Ge 
atom_frac            0.04122954           0.12689148           0.15000000 Ge 
atom_frac            0.95877046           0.12689148           0.19166667 Ge 
atom_frac            0.95877046           0.12689148           0.17500000 Ge 
atom_frac            0.89205966           0.07842324           0.16666667 Ge 
atom_frac            0.89205966           0.07842324           0.15000000 Ge 
atom_frac            0.86657841           0.00000000           0.19166667 Ge 
atom_frac            0.86657841           0.00000000           0.17500000 Ge 
atom_frac            0.89205966           0.92157676           0.16666667 Ge 
atom_frac            0.89205966           0.92157676           0.15000000 Ge 
atom_frac            0.95877046           0.87310852           0.19166667 Ge 
atom_frac            0.95877046           0.87310852           0.17500000 Ge 
atom_frac            0.04122954           0.87310852           0.16666667 Ge 
atom_frac            0.04122954           0.87310852           0.15000000 Ge 
atom_frac            0.10794034           0.92157676           0.19166667 Ge 
atom_frac            0.10794034           0.92157676           0.17500000 Ge 
atom_frac            0.13342159           0.00000000           0.16666667 Ge 
atom_frac            0.13342159           0.00000000           0.20000000 Ge 
atom_frac            0.10794034           0.07842324           0.24166667 Ge 
atom_frac            0.10794034           0.07842324           0.22500000 Ge 
atom_frac            0.04122954           0.12689148           0.21666667 Ge 
atom_frac            0.04122954           0.12689148           0.20000000 Ge 
atom_frac            0.95877046           0.12689148           0.24166667 Ge 
atom_frac            0.95877046           0.12689148           0.22500000 Ge 
atom_frac            0.89205966           0.07842324           0.21666667 Ge 
atom_frac            0.89205966           0.07842324           0.20000000 Ge 
atom_frac            0.86657841           0.00000000           0.24166667 Ge 
atom_frac            0.86657841           0.00000000           0.22500000 Ge 
atom_frac            0.89205966           0.92157676           0.21666667 Ge 
atom_frac            0.89205966           0.92157676           0.20000000 Ge 
atom_frac            0.95877046           0.87310852           0.24166667 Ge 
atom_frac            0.95877046           0.87310852           0.22500000 Ge 
atom_frac            0.04122954           0.87310852           0.21666667 Ge 
atom_frac            0.04122954           0.87310852           0.20000000 Ge 
atom_frac            0.10794034           0.92157676           0.24166667 Ge 
atom_frac            0.10794034           0.92157676           0.22500000 Ge 
atom_frac            0.13342159           0.00000000           0.21666667 Ge 
atom_frac            0.13342159           0.00000000           0.25000000 Ge 
atom_frac            0.10794034           0.07842324           0.29166667 Ge 
atom_frac            0.10794034           0.07842324           0.27500000 Ge 
atom_frac            0.04122954           0.12689148           0.26666667 Ge 
atom_frac            0.04122954           0.12689148           0.25000000 Ge 
atom_frac            0.95877046           0.12689148           0.29166667 Ge 
atom_frac            0.95877046           0.12689148           0.27500000 Ge 
atom_frac            0.89205966           0.07842324           0.26666667 Ge 
atom_frac            0.89205966           0.07842324           0.25000000 Ge 
atom_frac            0.86657841           0.00000000           0.29166667 Ge 
atom_frac            0.86657841           0.00000000           0.27500000 Ge 
atom_frac            0.89205966           0.92157676           0.26666667 Ge 
atom_frac            0.89205966           0.92157676           0.25000000 Ge 
atom_frac            0.95877046           0.87310852           0.29166667 Ge 
atom_frac            0.95877046           0.87310852           0.27500000 Ge 
atom_frac            0.04122954           0.87310852           0.26666667 Ge 
atom_frac            0.04122954           0.87310852           0.25000000 Ge 
atom_frac            0.10794034           0.92157676           0.29166667 Ge 
atom_frac            0.10794034           0.92157676           0.27500000 Ge 
atom_frac            0.13342159           0.00000000           0.26666667 Ge 
atom_frac            0.13342159           0.00000000           0.30000000 Ge 
atom_frac            0.10794034           0.07842324           0.34166667 Ge 
atom_frac            0.10794034           0.07842324           0.32500000 Ge 
atom_frac            0.04122954           0.12689148           0.31666667 Ge 
atom_frac            0.04122954           0.12689148           0.30000000 Ge 
atom_frac            0.95877046           0.12689148           0.34166667 Ge 
atom_frac            0.95877046           0.12689148           0.32500000 Ge 
atom_frac            0.89205966           0.07842324           0.31666667 Ge 
atom_frac            0.89205966           0.07842324           0.30000000 Ge 
atom_frac            0.86657841           0.00000000           0.34166667 Ge 
atom_frac            0.86657841           0.00000000           0.32500000 Ge 
atom_frac            0.89205966           0.92157676           0.31666667 Ge 
atom_frac            0.89205966           0.92157676           0.30000000 Ge 
atom_frac            0.95877046           0.87310852           0.34166667 Ge 
atom_frac            0.95877046           0.87310852           0.32500000 Ge 
atom_frac            0.04122954           0.87310852           0.31666667 Ge 
atom_frac            0.04122954           0.87310852           0.30000000 Ge 
atom_frac            0.10794034           0.92157676           0.34166667 Ge 
atom_frac            0.10794034           0.92157676           0.32500000 Ge 
atom_frac            0.13342159           0.00000000           0.31666667 Ge 
atom_frac            0.13342159           0.00000000           0.35000000 Ge 
atom_frac            0.10794034           0.07842324           0.39166667 Ge 
atom_frac            0.10794034           0.07842324           0.37500000 Ge 
atom_frac            0.04122954           0.12689148           0.36666667 Ge 
atom_frac            0.04122954           0.12689148           0.35000000 Ge 
atom_frac            0.95877046           0.12689148           0.39166667 Ge 
atom_frac            0.95877046           0.12689148           0.37500000 Ge 
atom_frac            0.89205966           0.07842324           0.36666667 Ge 
atom_frac            0.89205966           0.07842324           0.35000000 Ge 
atom_frac            0.86657841           0.00000000           0.39166667 Ge 
atom_frac            0.86657841           0.00000000           0.37500000 Ge 
atom_frac            0.89205966           0.92157676           0.36666667 Ge 
atom_frac            0.89205966           0.92157676           0.35000000 Ge 
atom_frac            0.95877046           0.87310852           0.39166667 Ge 
atom_frac            0.95877046           0.87310852           0.37500000 Ge 
atom_frac            0.04122954           0.87310852           0.36666667 Ge 
atom_frac            0.04122954           0.87310852           0.35000000 Ge 
atom_frac            0.10794034           0.92157676           0.39166667 Ge 
atom_frac            0.10794034           0.92157676           0.37500000 Ge 
atom_frac            0.13342159           0.00000000           0.36666667 Ge 
atom_frac            0.13342159           0.00000000           0.40000000 Ge 
atom_frac            0.10794034           0.07842324           0.44166667 Ge 
atom_frac            0.10794034           0.07842324           0.42500000 Ge 
atom_frac            0.04122954           0.12689148           0.41666667 Ge 
atom_frac            0.04122954           0.12689148           0.40000000 Ge 
atom_frac            0.95877046           0.12689148           0.44166667 Ge 
atom_frac            0.95877046           0.12689148           0.42500000 Ge 
atom_frac            0.89205966           0.07842324           0.41666667 Ge 
atom_frac            0.89205966           0.07842324           0.40000000 Ge 
atom_frac            0.86657841           0.00000000           0.44166667 Ge 
atom_frac            0.86657841           0.00000000           0.42500000 Ge 
atom_frac            0.89205966           0.92157676           0.41666667 Ge 
atom_frac            0.89205966           0.92157676           0.40000000 Ge 
atom_frac            0.95877046           0.87310852           0.44166667 Ge 
atom_frac            0.95877046           0.87310852           0.42500000 Ge 
atom_frac            0.04122954           0.87310852           0.41666667 Ge 
atom_frac            0.04122954           0.87310852           0.40000000 Ge 
atom_frac            0.10794034           0.92157676           0.44166667 Ge 
atom_frac            0.10794034           0.92157676           0.42500000 Ge 
atom_frac            0.13342159           0.00000000           0.41666667 Ge 
atom_frac            0.13342159           0.00000000           0.45000000 Ge 
atom_frac            0.10794034           0.07842324           0.49166667 Ge 
atom_frac            0.10794034           0.07842324           0.47500000 Ge 
atom_frac            0.04122954           0.12689148           0.46666667 Ge 
atom_frac            0.04122954           0.12689148           0.45000000 Ge 
atom_frac            0.95877046           0.12689148           0.49166667 Ge 
atom_frac            0.95877046           0.12689148           0.47500000 Ge 
atom_frac            0.89205966           0.07842324           0.46666667 Ge 
atom_frac            0.89205966           0.07842324           0.45000000 Ge 
atom_frac            0.86657841           0.00000000           0.49166667 Ge 
atom_frac            0.86657841           0.00000000           0.47500000 Ge 
atom_frac            0.89205966           0.92157676           0.46666667 Ge 
atom_frac            0.89205966           0.92157676           0.45000000 Ge 
atom_frac            0.95877046           0.87310852           0.49166667 Ge 
atom_frac            0.95877046           0.87310852           0.47500000 Ge 
atom_frac            0.04122954           0.87310852           0.46666667 Ge 
atom_frac            0.04122954           0.87310852           0.45000000 Ge 
atom_frac            0.10794034           0.92157676           0.49166667 Ge 
atom_frac            0.10794034           0.92157676           0.47500000 Ge 
atom_frac            0.13342159           0.00000000           0.46666667 Ge 
atom_frac            0.13342159           0.00000000           0.50000000 Ge 
atom_frac            0.10794034           0.07842324           0.54166667 Ge 
atom_frac            0.10794034           0.07842324           0.52500000 Ge 
atom_frac            0.04122954           0.12689148           0.51666667 Ge 
atom_frac            0.04122954           0.12689148           0.50000000 Ge 
atom_frac            0.95877046           0.12689148           0.54166667 Ge 
atom_frac            0.95877046           0.12689148           0.52500000 Ge 
atom_frac            0.89205966           0.07842324           0.51666667 Ge 
atom_frac            0.89205966           0.07842324           0.50000000 Ge 
atom_frac            0.86657841           0.00000000           0.54166667 Ge 
atom_frac            0.86657841           0.00000000           0.52500000 Ge 
atom_frac            0.89205966           0.92157676           0.51666667 Ge 
atom_frac            0.89205966           0.92157676           0.50000000 Ge 
atom_frac            0.95877046           0.87310852           0.54166667 Ge 
atom_frac            0.95877046           0.87310852           0.52500000 Ge 
atom_frac            0.04122954           0.87310852           0.51666667 Ge 
atom_frac            0.04122954           0.87310852           0.50000000 Ge 
atom_frac            0.10794034           0.92157676           0.54166667 Ge 
atom_frac            0.10794034           0.92157676           0.52500000 Ge 
atom_frac            0.13342159           0.00000000           0.51666667 Ge 
atom_frac            0.13342159           0.00000000           0.55000000 Ge 
atom_frac            0.10794034           0.07842324           0.59166667 Ge 
atom_frac            0.10794034           0.07842324           0.57500000 Ge 
atom_frac            0.04122954           0.12689148           0.56666667 Ge 
atom_frac            0.04122954           0.12689148           0.55000000 Ge 
atom_frac            0.95877046           0.12689148           0.59166667 Ge 
atom_frac            0.95877046           0.12689148           0.57500000 Ge 
atom_frac            0.89205966           0.07842324           0.56666667 Ge 
atom_frac            0.89205966           0.07842324           0.55000000 Ge 
atom_frac            0.86657841           0.00000000           0.59166667 Ge 
atom_frac            0.86657841           0.00000000           0.57500000 Ge 
atom_frac            0.89205966           0.92157676           0.56666667 Ge 
atom_frac            0.89205966           0.92157676           0.55000000 Ge 
atom_frac            0.95877046           0.87310852           0.59166667 Ge 
atom_frac            0.95877046           0.87310852           0.57500000 Ge 
atom_frac            0.04122954           0.87310852           0.56666667 Ge 
atom_frac            0.04122954           0.87310852           0.55000000 Ge 
atom_frac            0.10794034           0.92157676           0.59166667 Ge 
atom_frac            0.10794034           0.92157676           0.57500000 Ge 
atom_frac            0.13342159           0.00000000           0.56666667 Ge 
atom_frac            0.13342159           0.00000000           0.60000000 Ge 
atom_frac            0.10794034           0.07842324           0.64166667 Ge 
atom_frac            0.10794034           0.07842324           0.62500000 Ge 
atom_frac            0.04122954           0.12689148           0.61666667 Ge 
atom_frac            0.04122954           0.12689148           0.60000000 Ge 
atom_frac            0.95877046           0.12689148           0.64166667 Ge 
atom_frac            0.95877046           0.12689148           0.62500000 Ge 
atom_frac            0.89205966           0.07842324           0.61666667 Ge 
atom_frac            0.89205966           0.07842324           0.60000000 Ge 
atom_frac            0.86657841           0.00000000           0.64166667 Ge 
atom_frac            0.86657841           0.00000000           0.62500000 Ge 
atom_frac            0.89205966           0.92157676           0.61666667 Ge 
atom_frac            0.89205966           0.92157676           0.60000000 Ge 
atom_frac            0.95877046           0.87310852           0.64166667 Ge 
atom_frac            0.95877046           0.87310852           0.62500000 Ge 
atom_frac            0.04122954           0.87310852           0.61666667 Ge 
atom_frac            0.04122954           0.87310852           0.60000000 Ge 
atom_frac            0.10794034           0.92157676           0.64166667 Ge 
atom_frac            0.10794034           0.92157676           0.62500000 Ge 
atom_frac            0.13342159           0.00000000           0.61666667 Ge 
atom_frac            0.13342159           0.00000000           0.65000000 Ge 
atom_frac            0.10794034           0.07842324           0.69166667 Ge 
atom_frac            0.10794034           0.07842324           0.67500000 Ge 
atom_frac            0.04122954           0.12689148           0.66666667 Ge 
atom_frac            0.04122954           0.12689148           0.65000000 Ge 
atom_frac            0.95877046           0.12689148           0.69166667 Ge 
atom_frac            0.95877046           0.12689148           0.67500000 Ge 
atom_frac            0.89205966           0.07842324           0.66666667 Ge 
atom_frac            0.89205966           0.07842324           0.65000000 Ge 
atom_frac            0.86657841           0.00000000           0.69166667 Ge 
atom_frac            0.86657841           0.00000000           0.67500000 Ge 
atom_frac            0.89205966           0.92157676           0.66666667 Ge 
atom_frac            0.89205966           0.92157676           0.65000000 Ge 
atom_frac            0.95877046           0.87310852           0.69166667 Ge 
atom_frac            0.95877046           0.87310852           0.67500000 Ge 
atom_frac            0.04122954           0.87310852           0.66666667 Ge 
atom_frac            0.04122954           0.87310852           0.65000000 Ge 
atom_frac            0.10794034           0.92157676           0.69166667 Ge 
atom_frac            0.10794034           0.92157676           0.67500000 Ge 
atom_frac            0.13342159           0.00000000           0.66666667 Ge 
atom_frac            0.13342159           0.00000000           0.70000000 Ge 
atom_frac            0.10794034           0.07842324           0.74166667 Ge 
atom_frac            0.10794034           0.07842324           0.72500000 Ge 
atom_frac            0.04122954           0.12689148           0.71666667 Ge 
atom_frac            0.04122954           0.12689148           0.70000000 Ge 
atom_frac            0.95877046           0.12689148           0.74166667 Ge 
atom_frac            0.95877046           0.12689148           0.72500000 Ge 
atom_frac            0.89205966           0.07842324           0.71666667 Ge 
atom_frac            0.89205966           0.07842324           0.70000000 Ge 
atom_frac            0.86657841           0.00000000           0.74166667 Ge 
atom_frac            0.86657841           0.00000000           0.72500000 Ge 
atom_frac            0.89205966           0.92157676           0.71666667 Ge 
atom_frac            0.89205966           0.92157676           0.70000000 Ge 
atom_frac            0.95877046           0.87310852           0.74166667 Ge 
atom_frac            0.95877046           0.87310852           0.72500000 Ge 
atom_frac            0.04122954           0.87310852           0.71666667 Ge 
atom_frac            0.04122954           0.87310852           0.70000000 Ge 
atom_frac            0.10794034           0.92157676           0.74166667 Ge 
atom_frac            0.10794034           0.92157676           0.72500000 Ge 
atom_frac            0.13342159           0.00000000           0.71666667 Ge 
atom_frac            0.13342159           0.00000000           0.75000000 Ge 
atom_frac            0.10794034           0.07842324           0.79166667 Ge 
atom_frac            0.10794034           0.07842324           0.77500000 Ge 
atom_frac            0.04122954           0.12689148           0.76666667 Ge 
atom_frac            0.04122954           0.12689148           0.75000000 Ge 
atom_frac            0.95877046           0.12689148           0.79166667 Ge 
atom_frac            0.95877046           0.12689148           0.77500000 Ge 
atom_frac            0.89205966           0.07842324           0.76666667 Ge 
atom_frac            0.89205966           0.07842324           0.75000000 Ge 
atom_frac            0.86657841           0.00000000           0.79166667 Ge 
atom_frac            0.86657841           0.00000000           0.77500000 Ge 
atom_frac            0.89205966           0.92157676           0.76666667 Ge 
atom_frac            0.89205966           0.92157676           0.75000000 Ge 
atom_frac            0.95877046           0.87310852           0.79166667 Ge 
atom_frac            0.95877046           0.87310852           0.77500000 Ge 
atom_frac            0.04122954           0.87310852           0.76666667 Ge 
atom_frac            0.04122954           0.87310852           0.75000000 Ge 
atom_frac            0.10794034           0.92157676           0.79166667 Ge 
atom_frac            0.10794034           0.92157676           0.77500000 Ge 
atom_frac            0.13342159           0.00000000           0.76666667 Ge 
atom_frac            0.13342159           0.00000000           0.80000000 Ge 
atom_frac            0.10794034           0.07842324           0.84166667 Ge 
atom_frac            0.10794034           0.07842324           0.82500000 Ge 
atom_frac            0.04122954           0.12689148           0.81666667 Ge 
atom_frac            0.04122954           0.12689148           0.80000000 Ge 
atom_frac            0.95877046           0.12689148           0.84166667 Ge 
atom_frac            0.95877046           0.12689148           0.82500000 Ge 
atom_frac            0.89205966           0.07842324           0.81666667 Ge 
atom_frac            0.89205966           0.07842324           0.80000000 Ge 
atom_frac            0.86657841           0.00000000           0.84166667 Ge 
atom_frac            0.86657841           0.00000000           0.82500000 Ge 
atom_frac            0.89205966           0.92157676           0.81666667 Ge 
atom_frac            0.89205966           0.92157676           0.80000000 Ge 
atom_frac            0.95877046           0.87310852           0.84166667 Ge 
atom_frac            0.95877046           0.87310852           0.82500000 Ge 
atom_frac            0.04122954           0.87310852           0.81666667 Ge 
atom_frac            0.04122954           0.87310852           0.80000000 Ge 
atom_frac            0.10794034           0.92157676           0.84166667 Ge 
atom_frac            0.10794034           0.92157676           0.82500000 Ge 
atom_frac            0.13342159           0.00000000           0.81666667 Ge 
atom_frac            0.13342159           0.00000000           0.85000000 Ge 
atom_frac            0.10794034           0.07842324           0.89166667 Ge 
atom_frac            0.10794034           0.07842324           0.87500000 Ge 
atom_frac            0.04122954           0.12689148           0.86666667 Ge 
atom_frac            0.04122954           0.12689148           0.85000000 Ge 
atom_frac            0.95877046           0.12689148           0.89166667 Ge 
atom_frac            0.95877046           0.12689148           0.87500000 Ge 
atom_frac            0.89205966           0.07842324           0.86666667 Ge 
atom_frac            0.89205966           0.07842324           0.85000000 Ge 
atom_frac            0.86657841           0.00000000           0.89166667 Ge 
atom_frac            0.86657841           0.00000000           0.87500000 Ge 
atom_frac            0.89205966           0.92157676           0.86666667 Ge 
atom_frac            0.89205966           0.92157676           0.85000000 Ge 
atom_frac            0.95877046           0.87310852           0.89166667 Ge 
atom_frac            0.95877046           0.87310852           0.87500000 Ge 
atom_frac            0.04122954           0.87310852           0.86666667 Ge 
atom_frac            0.04122954           0.87310852           0.85000000 Ge 
atom_frac            0.10794034           0.92157676           0.89166667 Ge 
atom_frac            0.10794034           0.92157676           0.87500000 Ge 
atom_frac            0.13342159           0.00000000           0.86666667 Ge 
atom_frac            0.13342159           0.00000000           0.90000000 Ge 
atom_frac            0.10794034           0.07842324           0.94166667 Ge 
atom_frac            0.10794034           0.07842324           0.92500000 Ge 
atom_frac            0.04122954           0.12689148           0.91666667 Ge 
atom_frac            0.04122954           0.12689148           0.90000000 Ge 
atom_frac            0.95877046           0.12689148           0.94166667 Ge 
atom_frac            0.95877046           0.12689148           0.92500000 Ge 
atom_frac            0.89205966           0.07842324           0.91666667 Ge 
atom_frac            0.89205966           0.07842324           0.90000000 Ge 
atom_frac            0.86657841           0.00000000           0.94166667 Ge 
atom_frac            0.86657841           0.00000000           0.92500000 Ge 
atom_frac            0.89205966           0.92157676           0.91666667 Ge 
atom_frac            0.89205966           0.92157676           0.90000000 Ge 
atom_frac            0.95877046           0.87310852           0.94166667 Ge 
atom_frac            0.95877046           0.87310852           0.92500000 Ge 
atom_frac            0.04122954           0.87310852           0.91666667 Ge 
atom_frac            0.04122954           0.87310852           0.90000000 Ge 
atom_frac            0.10794034           0.92157676           0.94166667 Ge 
atom_frac            0.10794034           0.92157676           0.92500000 Ge 
atom_frac            0.13342159           0.00000000           0.91666667 Ge 
atom_frac            0.13342159           0.00000000           0.95000000 Ge 