lattice_vector           25.00000000           0.00000000           0.00000000
lattice_vector            0.00000000          25.00000000           0.00000000
lattice_vector            0.00000000           0.00000000        2323.20000000

atom_frac            0.13342159           0.00000000           0.00000000 Ge 
atom_frac            0.10794034           0.07842324           0.00260417 Ge 
atom_frac            0.10794034           0.07842324           0.00156250 Ge 
atom_frac            0.04122954           0.12689148           0.00104167 Ge 
atom_frac            0.04122954           0.12689148           0.00000000 Ge 
atom_frac            0.95877046           0.12689148           0.00260417 Ge 
atom_frac            0.95877046           0.12689148           0.00156250 Ge 
atom_frac            0.89205966           0.07842324           0.00104167 Ge 
atom_frac            0.89205966           0.07842324           0.00000000 Ge 
atom_frac            0.86657841           0.00000000           0.00260417 Ge 
atom_frac            0.86657841           0.00000000           0.00156250 Ge 
atom_frac            0.89205966           0.92157676           0.00104167 Ge 
atom_frac            0.89205966           0.92157676           0.00000000 Ge 
atom_frac            0.95877046           0.87310852           0.00260417 Ge 
atom_frac            0.95877046           0.87310852           0.00156250 Ge 
atom_frac            0.04122954           0.87310852           0.00104167 Ge 
atom_frac            0.04122954           0.87310852           0.00000000 Ge 
atom_frac            0.10794034           0.92157676           0.00260417 Ge 
atom_frac            0.10794034           0.92157676           0.00156250 Ge 
atom_frac            0.13342159           0.00000000           0.00104167 Ge 
atom_frac            0.13342159           0.00000000           0.00312500 Ge 
atom_frac            0.10794034           0.07842324           0.00572917 Ge 
atom_frac            0.10794034           0.07842324           0.00468750 Ge 
atom_frac            0.04122954           0.12689148           0.00416667 Ge 
atom_frac            0.04122954           0.12689148           0.00312500 Ge 
atom_frac            0.95877046           0.12689148           0.00572917 Ge 
atom_frac            0.95877046           0.12689148           0.00468750 Ge 
atom_frac            0.89205966           0.07842324           0.00416667 Ge 
atom_frac            0.89205966           0.07842324           0.00312500 Ge 
atom_frac            0.86657841           0.00000000           0.00572917 Ge 
atom_frac            0.86657841           0.00000000           0.00468750 Ge 
atom_frac            0.89205966           0.92157676           0.00416667 Ge 
atom_frac            0.89205966           0.92157676           0.00312500 Ge 
atom_frac            0.95877046           0.87310852           0.00572917 Ge 
atom_frac            0.95877046           0.87310852           0.00468750 Ge 
atom_frac            0.04122954           0.87310852           0.00416667 Ge 
atom_frac            0.04122954           0.87310852           0.00312500 Ge 
atom_frac            0.10794034           0.92157676           0.00572917 Ge 
atom_frac            0.10794034           0.92157676           0.00468750 Ge 
atom_frac            0.13342159           0.00000000           0.00416667 Ge 
atom_frac            0.13342159           0.00000000           0.00625000 Ge 
atom_frac            0.10794034           0.07842324           0.00885417 Ge 
atom_frac            0.10794034           0.07842324           0.00781250 Ge 
atom_frac            0.04122954           0.12689148           0.00729167 Ge 
atom_frac            0.04122954           0.12689148           0.00625000 Ge 
atom_frac            0.95877046           0.12689148           0.00885417 Ge 
atom_frac            0.95877046           0.12689148           0.00781250 Ge 
atom_frac            0.89205966           0.07842324           0.00729167 Ge 
atom_frac            0.89205966           0.07842324           0.00625000 Ge 
atom_frac            0.86657841           0.00000000           0.00885417 Ge 
atom_frac            0.86657841           0.00000000           0.00781250 Ge 
atom_frac            0.89205966           0.92157676           0.00729167 Ge 
atom_frac            0.89205966           0.92157676           0.00625000 Ge 
atom_frac            0.95877046           0.87310852           0.00885417 Ge 
atom_frac            0.95877046           0.87310852           0.00781250 Ge 
atom_frac            0.04122954           0.87310852           0.00729167 Ge 
atom_frac            0.04122954           0.87310852           0.00625000 Ge 
atom_frac            0.10794034           0.92157676           0.00885417 Ge 
atom_frac            0.10794034           0.92157676           0.00781250 Ge 
atom_frac            0.13342159           0.00000000           0.00729167 Ge 
atom_frac            0.13342159           0.00000000           0.00937500 Ge 
atom_frac            0.10794034           0.07842324           0.01197917 Ge 
atom_frac            0.10794034           0.07842324           0.01093750 Ge 
atom_frac            0.04122954           0.12689148           0.01041667 Ge 
atom_frac            0.04122954           0.12689148           0.00937500 Ge 
atom_frac            0.95877046           0.12689148           0.01197917 Ge 
atom_frac            0.95877046           0.12689148           0.01093750 Ge 
atom_frac            0.89205966           0.07842324           0.01041667 Ge 
atom_frac            0.89205966           0.07842324           0.00937500 Ge 
atom_frac            0.86657841           0.00000000           0.01197917 Ge 
atom_frac            0.86657841           0.00000000           0.01093750 Ge 
atom_frac            0.89205966           0.92157676           0.01041667 Ge 
atom_frac            0.89205966           0.92157676           0.00937500 Ge 
atom_frac            0.95877046           0.87310852           0.01197917 Ge 
atom_frac            0.95877046           0.87310852           0.01093750 Ge 
atom_frac            0.04122954           0.87310852           0.01041667 Ge 
atom_frac            0.04122954           0.87310852           0.00937500 Ge 
atom_frac            0.10794034           0.92157676           0.01197917 Ge 
atom_frac            0.10794034           0.92157676           0.01093750 Ge 
atom_frac            0.13342159           0.00000000           0.01041667 Ge 
atom_frac            0.13342159           0.00000000           0.01250000 Ge 
atom_frac            0.10794034           0.07842324           0.01510417 Ge 
atom_frac            0.10794034           0.07842324           0.01406250 Ge 
atom_frac            0.04122954           0.12689148           0.01354167 Ge 
atom_frac            0.04122954           0.12689148           0.01250000 Ge 
atom_frac            0.95877046           0.12689148           0.01510417 Ge 
atom_frac            0.95877046           0.12689148           0.01406250 Ge 
atom_frac            0.89205966           0.07842324           0.01354167 Ge 
atom_frac            0.89205966           0.07842324           0.01250000 Ge 
atom_frac            0.86657841           0.00000000           0.01510417 Ge 
atom_frac            0.86657841           0.00000000           0.01406250 Ge 
atom_frac            0.89205966           0.92157676           0.01354167 Ge 
atom_frac            0.89205966           0.92157676           0.01250000 Ge 
atom_frac            0.95877046           0.87310852           0.01510417 Ge 
atom_frac            0.95877046           0.87310852           0.01406250 Ge 
atom_frac            0.04122954           0.87310852           0.01354167 Ge 
atom_frac            0.04122954           0.87310852           0.01250000 Ge 
atom_frac            0.10794034           0.92157676           0.01510417 Ge 
atom_frac            0.10794034           0.92157676           0.01406250 Ge 
atom_frac            0.13342159           0.00000000           0.01354167 Ge 
atom_frac            0.13342159           0.00000000           0.01562500 Ge 
atom_frac            0.10794034           0.07842324           0.01822917 Ge 
atom_frac            0.10794034           0.07842324           0.01718750 Ge 
atom_frac            0.04122954           0.12689148           0.01666667 Ge 
atom_frac            0.04122954           0.12689148           0.01562500 Ge 
atom_frac            0.95877046           0.12689148           0.01822917 Ge 
atom_frac            0.95877046           0.12689148           0.01718750 Ge 
atom_frac            0.89205966           0.07842324           0.01666667 Ge 
atom_frac            0.89205966           0.07842324           0.01562500 Ge 
atom_frac            0.86657841           0.00000000           0.01822917 Ge 
atom_frac            0.86657841           0.00000000           0.01718750 Ge 
atom_frac            0.89205966           0.92157676           0.01666667 Ge 
atom_frac            0.89205966           0.92157676           0.01562500 Ge 
atom_frac            0.95877046           0.87310852           0.01822917 Ge 
atom_frac            0.95877046           0.87310852           0.01718750 Ge 
atom_frac            0.04122954           0.87310852           0.01666667 Ge 
atom_frac            0.04122954           0.87310852           0.01562500 Ge 
atom_frac            0.10794034           0.92157676           0.01822917 Ge 
atom_frac            0.10794034           0.92157676           0.01718750 Ge 
atom_frac            0.13342159           0.00000000           0.01666667 Ge 
atom_frac            0.13342159           0.00000000           0.01875000 Ge 
atom_frac            0.10794034           0.07842324           0.02135417 Ge 
atom_frac            0.10794034           0.07842324           0.02031250 Ge 
atom_frac            0.04122954           0.12689148           0.01979167 Ge 
atom_frac            0.04122954           0.12689148           0.01875000 Ge 
atom_frac            0.95877046           0.12689148           0.02135417 Ge 
atom_frac            0.95877046           0.12689148           0.02031250 Ge 
atom_frac            0.89205966           0.07842324           0.01979167 Ge 
atom_frac            0.89205966           0.07842324           0.01875000 Ge 
atom_frac            0.86657841           0.00000000           0.02135417 Ge 
atom_frac            0.86657841           0.00000000           0.02031250 Ge 
atom_frac            0.89205966           0.92157676           0.01979167 Ge 
atom_frac            0.89205966           0.92157676           0.01875000 Ge 
atom_frac            0.95877046           0.87310852           0.02135417 Ge 
atom_frac            0.95877046           0.87310852           0.02031250 Ge 
atom_frac            0.04122954           0.87310852           0.01979167 Ge 
atom_frac            0.04122954           0.87310852           0.01875000 Ge 
atom_frac            0.10794034           0.92157676           0.02135417 Ge 
atom_frac            0.10794034           0.92157676           0.02031250 Ge 
atom_frac            0.13342159           0.00000000           0.01979167 Ge 
atom_frac            0.13342159           0.00000000           0.02187500 Ge 
atom_frac            0.10794034           0.07842324           0.02447917 Ge 
atom_frac            0.10794034           0.07842324           0.02343750 Ge 
atom_frac            0.04122954           0.12689148           0.02291667 Ge 
atom_frac            0.04122954           0.12689148           0.02187500 Ge 
atom_frac            0.95877046           0.12689148           0.02447917 Ge 
atom_frac            0.95877046           0.12689148           0.02343750 Ge 
atom_frac            0.89205966           0.07842324           0.02291667 Ge 
atom_frac            0.89205966           0.07842324           0.02187500 Ge 
atom_frac            0.86657841           0.00000000           0.02447917 Ge 
atom_frac            0.86657841           0.00000000           0.02343750 Ge 
atom_frac            0.89205966           0.92157676           0.02291667 Ge 
atom_frac            0.89205966           0.92157676           0.02187500 Ge 
atom_frac            0.95877046           0.87310852           0.02447917 Ge 
atom_frac            0.95877046           0.87310852           0.02343750 Ge 
atom_frac            0.04122954           0.87310852           0.02291667 Ge 
atom_frac            0.04122954           0.87310852           0.02187500 Ge 
atom_frac            0.10794034           0.92157676           0.02447917 Ge 
atom_frac            0.10794034           0.92157676           0.02343750 Ge 
atom_frac            0.13342159           0.00000000           0.02291667 Ge 
atom_frac            0.13342159           0.00000000           0.02500000 Ge 
atom_frac            0.10794034           0.07842324           0.02760417 Ge 
atom_frac            0.10794034           0.07842324           0.02656250 Ge 
atom_frac            0.04122954           0.12689148           0.02604167 Ge 
atom_frac            0.04122954           0.12689148           0.02500000 Ge 
atom_frac            0.95877046           0.12689148           0.02760417 Ge 
atom_frac            0.95877046           0.12689148           0.02656250 Ge 
atom_frac            0.89205966           0.07842324           0.02604167 Ge 
atom_frac            0.89205966           0.07842324           0.02500000 Ge 
atom_frac            0.86657841           0.00000000           0.02760417 Ge 
atom_frac            0.86657841           0.00000000           0.02656250 Ge 
atom_frac            0.89205966           0.92157676           0.02604167 Ge 
atom_frac            0.89205966           0.92157676           0.02500000 Ge 
atom_frac            0.95877046           0.87310852           0.02760417 Ge 
atom_frac            0.95877046           0.87310852           0.02656250 Ge 
atom_frac            0.04122954           0.87310852           0.02604167 Ge 
atom_frac            0.04122954           0.87310852           0.02500000 Ge 
atom_frac            0.10794034           0.92157676           0.02760417 Ge 
atom_frac            0.10794034           0.92157676           0.02656250 Ge 
atom_frac            0.13342159           0.00000000           0.02604167 Ge 
atom_frac            0.13342159           0.00000000           0.02812500 Ge 
atom_frac            0.10794034           0.07842324           0.03072917 Ge 
atom_frac            0.10794034           0.07842324           0.02968750 Ge 
atom_frac            0.04122954           0.12689148           0.02916667 Ge 
atom_frac            0.04122954           0.12689148           0.02812500 Ge 
atom_frac            0.95877046           0.12689148           0.03072917 Ge 
atom_frac            0.95877046           0.12689148           0.02968750 Ge 
atom_frac            0.89205966           0.07842324           0.02916667 Ge 
atom_frac            0.89205966           0.07842324           0.02812500 Ge 
atom_frac            0.86657841           0.00000000           0.03072917 Ge 
atom_frac            0.86657841           0.00000000           0.02968750 Ge 
atom_frac            0.89205966           0.92157676           0.02916667 Ge 
atom_frac            0.89205966           0.92157676           0.02812500 Ge 
atom_frac            0.95877046           0.87310852           0.03072917 Ge 
atom_frac            0.95877046           0.87310852           0.02968750 Ge 
atom_frac            0.04122954           0.87310852           0.02916667 Ge 
atom_frac            0.04122954           0.87310852           0.02812500 Ge 
atom_frac            0.10794034           0.92157676           0.03072917 Ge 
atom_frac            0.10794034           0.92157676           0.02968750 Ge 
atom_frac            0.13342159           0.00000000           0.02916667 Ge 
atom_frac            0.13342159           0.00000000           0.03125000 Ge 
atom_frac            0.10794034           0.07842324           0.03385417 Ge 
atom_frac            0.10794034           0.07842324           0.03281250 Ge 
atom_frac            0.04122954           0.12689148           0.03229167 Ge 
atom_frac            0.04122954           0.12689148           0.03125000 Ge 
atom_frac            0.95877046           0.12689148           0.03385417 Ge 
atom_frac            0.95877046           0.12689148           0.03281250 Ge 
atom_frac            0.89205966           0.07842324           0.03229167 Ge 
atom_frac            0.89205966           0.07842324           0.03125000 Ge 
atom_frac            0.86657841           0.00000000           0.03385417 Ge 
atom_frac            0.86657841           0.00000000           0.03281250 Ge 
atom_frac            0.89205966           0.92157676           0.03229167 Ge 
atom_frac            0.89205966           0.92157676           0.03125000 Ge 
atom_frac            0.95877046           0.87310852           0.03385417 Ge 
atom_frac            0.95877046           0.87310852           0.03281250 Ge 
atom_frac            0.04122954           0.87310852           0.03229167 Ge 
atom_frac            0.04122954           0.87310852           0.03125000 Ge 
atom_frac            0.10794034           0.92157676           0.03385417 Ge 
atom_frac            0.10794034           0.92157676           0.03281250 Ge 
atom_frac            0.13342159           0.00000000           0.03229167 Ge 
atom_frac            0.13342159           0.00000000           0.03437500 Ge 
atom_frac            0.10794034           0.07842324           0.03697917 Ge 
atom_frac            0.10794034           0.07842324           0.03593750 Ge 
atom_frac            0.04122954           0.12689148           0.03541667 Ge 
atom_frac            0.04122954           0.12689148           0.03437500 Ge 
atom_frac            0.95877046           0.12689148           0.03697917 Ge 
atom_frac            0.95877046           0.12689148           0.03593750 Ge 
atom_frac            0.89205966           0.07842324           0.03541667 Ge 
atom_frac            0.89205966           0.07842324           0.03437500 Ge 
atom_frac            0.86657841           0.00000000           0.03697917 Ge 
atom_frac            0.86657841           0.00000000           0.03593750 Ge 
atom_frac            0.89205966           0.92157676           0.03541667 Ge 
atom_frac            0.89205966           0.92157676           0.03437500 Ge 
atom_frac            0.95877046           0.87310852           0.03697917 Ge 
atom_frac            0.95877046           0.87310852           0.03593750 Ge 
atom_frac            0.04122954           0.87310852           0.03541667 Ge 
atom_frac            0.04122954           0.87310852           0.03437500 Ge 
atom_frac            0.10794034           0.92157676           0.03697917 Ge 
atom_frac            0.10794034           0.92157676           0.03593750 Ge 
atom_frac            0.13342159           0.00000000           0.03541667 Ge 
atom_frac            0.13342159           0.00000000           0.03750000 Ge 
atom_frac            0.10794034           0.07842324           0.04010417 Ge 
atom_frac            0.10794034           0.07842324           0.03906250 Ge 
atom_frac            0.04122954           0.12689148           0.03854167 Ge 
atom_frac            0.04122954           0.12689148           0.03750000 Ge 
atom_frac            0.95877046           0.12689148           0.04010417 Ge 
atom_frac            0.95877046           0.12689148           0.03906250 Ge 
atom_frac            0.89205966           0.07842324           0.03854167 Ge 
atom_frac            0.89205966           0.07842324           0.03750000 Ge 
atom_frac            0.86657841           0.00000000           0.04010417 Ge 
atom_frac            0.86657841           0.00000000           0.03906250 Ge 
atom_frac            0.89205966           0.92157676           0.03854167 Ge 
atom_frac            0.89205966           0.92157676           0.03750000 Ge 
atom_frac            0.95877046           0.87310852           0.04010417 Ge 
atom_frac            0.95877046           0.87310852           0.03906250 Ge 
atom_frac            0.04122954           0.87310852           0.03854167 Ge 
atom_frac            0.04122954           0.87310852           0.03750000 Ge 
atom_frac            0.10794034           0.92157676           0.04010417 Ge 
atom_frac            0.10794034           0.92157676           0.03906250 Ge 
atom_frac            0.13342159           0.00000000           0.03854167 Ge 
atom_frac            0.13342159           0.00000000           0.04062500 Ge 
atom_frac            0.10794034           0.07842324           0.04322917 Ge 
atom_frac            0.10794034           0.07842324           0.04218750 Ge 
atom_frac            0.04122954           0.12689148           0.04166667 Ge 
atom_frac            0.04122954           0.12689148           0.04062500 Ge 
atom_frac            0.95877046           0.12689148           0.04322917 Ge 
atom_frac            0.95877046           0.12689148           0.04218750 Ge 
atom_frac            0.89205966           0.07842324           0.04166667 Ge 
atom_frac            0.89205966           0.07842324           0.04062500 Ge 
atom_frac            0.86657841           0.00000000           0.04322917 Ge 
atom_frac            0.86657841           0.00000000           0.04218750 Ge 
atom_frac            0.89205966           0.92157676           0.04166667 Ge 
atom_frac            0.89205966           0.92157676           0.04062500 Ge 
atom_frac            0.95877046           0.87310852           0.04322917 Ge 
atom_frac            0.95877046           0.87310852           0.04218750 Ge 
atom_frac            0.04122954           0.87310852           0.04166667 Ge 
atom_frac            0.04122954           0.87310852           0.04062500 Ge 
atom_frac            0.10794034           0.92157676           0.04322917 Ge 
atom_frac            0.10794034           0.92157676           0.04218750 Ge 
atom_frac            0.13342159           0.00000000           0.04166667 Ge 
atom_frac            0.13342159           0.00000000           0.04375000 Ge 
atom_frac            0.10794034           0.07842324           0.04635417 Ge 
atom_frac            0.10794034           0.07842324           0.04531250 Ge 
atom_frac            0.04122954           0.12689148           0.04479167 Ge 
atom_frac            0.04122954           0.12689148           0.04375000 Ge 
atom_frac            0.95877046           0.12689148           0.04635417 Ge 
atom_frac            0.95877046           0.12689148           0.04531250 Ge 
atom_frac            0.89205966           0.07842324           0.04479167 Ge 
atom_frac            0.89205966           0.07842324           0.04375000 Ge 
atom_frac            0.86657841           0.00000000           0.04635417 Ge 
atom_frac            0.86657841           0.00000000           0.04531250 Ge 
atom_frac            0.89205966           0.92157676           0.04479167 Ge 
atom_frac            0.89205966           0.92157676           0.04375000 Ge 
atom_frac            0.95877046           0.87310852           0.04635417 Ge 
atom_frac            0.95877046           0.87310852           0.04531250 Ge 
atom_frac            0.04122954           0.87310852           0.04479167 Ge 
atom_frac            0.04122954           0.87310852           0.04375000 Ge 
atom_frac            0.10794034           0.92157676           0.04635417 Ge 
atom_frac            0.10794034           0.92157676           0.04531250 Ge 
atom_frac            0.13342159           0.00000000           0.04479167 Ge 
atom_frac            0.13342159           0.00000000           0.04687500 Ge 
atom_frac            0.10794034           0.07842324           0.04947917 Ge 
atom_frac            0.10794034           0.07842324           0.04843750 Ge 
atom_frac            0.04122954           0.12689148           0.04791667 Ge 
atom_frac            0.04122954           0.12689148           0.04687500 Ge 
atom_frac            0.95877046           0.12689148           0.04947917 Ge 
atom_frac            0.95877046           0.12689148           0.04843750 Ge 
atom_frac            0.89205966           0.07842324           0.04791667 Ge 
atom_frac            0.89205966           0.07842324           0.04687500 Ge 
atom_frac            0.86657841           0.00000000           0.04947917 Ge 
atom_frac            0.86657841           0.00000000           0.04843750 Ge 
atom_frac            0.89205966           0.92157676           0.04791667 Ge 
atom_frac            0.89205966           0.92157676           0.04687500 Ge 
atom_frac            0.95877046           0.87310852           0.04947917 Ge 
atom_frac            0.95877046           0.87310852           0.04843750 Ge 
atom_frac            0.04122954           0.87310852           0.04791667 Ge 
atom_frac            0.04122954           0.87310852           0.04687500 Ge 
atom_frac            0.10794034           0.92157676           0.04947917 Ge 
atom_frac            0.10794034           0.92157676           0.04843750 Ge 
atom_frac            0.13342159           0.00000000           0.04791667 Ge 
atom_frac            0.13342159           0.00000000           0.05000000 Ge 
atom_frac            0.10794034           0.07842324           0.05260417 Ge 
atom_frac            0.10794034           0.07842324           0.05156250 Ge 
atom_frac            0.04122954           0.12689148           0.05104167 Ge 
atom_frac            0.04122954           0.12689148           0.05000000 Ge 
atom_frac            0.95877046           0.12689148           0.05260417 Ge 
atom_frac            0.95877046           0.12689148           0.05156250 Ge 
atom_frac            0.89205966           0.07842324           0.05104167 Ge 
atom_frac            0.89205966           0.07842324           0.05000000 Ge 
atom_frac            0.86657841           0.00000000           0.05260417 Ge 
atom_frac            0.86657841           0.00000000           0.05156250 Ge 
atom_frac            0.89205966           0.92157676           0.05104167 Ge 
atom_frac            0.89205966           0.92157676           0.05000000 Ge 
atom_frac            0.95877046           0.87310852           0.05260417 Ge 
atom_frac            0.95877046           0.87310852           0.05156250 Ge 
atom_frac            0.04122954           0.87310852           0.05104167 Ge 
atom_frac            0.04122954           0.87310852           0.05000000 Ge 
atom_frac            0.10794034           0.92157676           0.05260417 Ge 
atom_frac            0.10794034           0.92157676           0.05156250 Ge 
atom_frac            0.13342159           0.00000000           0.05104167 Ge 
atom_frac            0.13342159           0.00000000           0.05312500 Ge 
atom_frac            0.10794034           0.07842324           0.05572917 Ge 
atom_frac            0.10794034           0.07842324           0.05468750 Ge 
atom_frac            0.04122954           0.12689148           0.05416667 Ge 
atom_frac            0.04122954           0.12689148           0.05312500 Ge 
atom_frac            0.95877046           0.12689148           0.05572917 Ge 
atom_frac            0.95877046           0.12689148           0.05468750 Ge 
atom_frac            0.89205966           0.07842324           0.05416667 Ge 
atom_frac            0.89205966           0.07842324           0.05312500 Ge 
atom_frac            0.86657841           0.00000000           0.05572917 Ge 
atom_frac            0.86657841           0.00000000           0.05468750 Ge 
atom_frac            0.89205966           0.92157676           0.05416667 Ge 
atom_frac            0.89205966           0.92157676           0.05312500 Ge 
atom_frac            0.95877046           0.87310852           0.05572917 Ge 
atom_frac            0.95877046           0.87310852           0.05468750 Ge 
atom_frac            0.04122954           0.87310852           0.05416667 Ge 
atom_frac            0.04122954           0.87310852           0.05312500 Ge 
atom_frac            0.10794034           0.92157676           0.05572917 Ge 
atom_frac            0.10794034           0.92157676           0.05468750 Ge 
atom_frac            0.13342159           0.00000000           0.05416667 Ge 
atom_frac            0.13342159           0.00000000           0.05625000 Ge 
atom_frac            0.10794034           0.07842324           0.05885417 Ge 
atom_frac            0.10794034           0.07842324           0.05781250 Ge 
atom_frac            0.04122954           0.12689148           0.05729167 Ge 
atom_frac            0.04122954           0.12689148           0.05625000 Ge 
atom_frac            0.95877046           0.12689148           0.05885417 Ge 
atom_frac            0.95877046           0.12689148           0.05781250 Ge 
atom_frac            0.89205966           0.07842324           0.05729167 Ge 
atom_frac            0.89205966           0.07842324           0.05625000 Ge 
atom_frac            0.86657841           0.00000000           0.05885417 Ge 
atom_frac            0.86657841           0.00000000           0.05781250 Ge 
atom_frac            0.89205966           0.92157676           0.05729167 Ge 
atom_frac            0.89205966           0.92157676           0.05625000 Ge 
atom_frac            0.95877046           0.87310852           0.05885417 Ge 
atom_frac            0.95877046           0.87310852           0.05781250 Ge 
atom_frac            0.04122954           0.87310852           0.05729167 Ge 
atom_frac            0.04122954           0.87310852           0.05625000 Ge 
atom_frac            0.10794034           0.92157676           0.05885417 Ge 
atom_frac            0.10794034           0.92157676           0.05781250 Ge 
atom_frac            0.13342159           0.00000000           0.05729167 Ge 
atom_frac            0.13342159           0.00000000           0.05937500 Ge 