lattice_vector           25.00000000           0.00000000           0.00000000
lattice_vector            0.00000000          25.00000000           0.00000000
lattice_vector            0.00000000           0.00000000         290.40000000

atom_frac            0.13342159           0.00000000           0.00000000 Ge 
atom_frac            0.10794034           0.07842324           0.02083333 Ge 
atom_frac            0.10794034           0.07842324           0.01250000 Ge 
atom_frac            0.04122954           0.12689148           0.00833333 Ge 
atom_frac            0.04122954           0.12689148           0.00000000 Ge 
atom_frac            0.95877046           0.12689148           0.02083333 Ge 
atom_frac            0.95877046           0.12689148           0.01250000 Ge 
atom_frac            0.89205966           0.07842324           0.00833333 Ge 
atom_frac            0.89205966           0.07842324           0.00000000 Ge 
atom_frac            0.86657841           0.00000000           0.02083333 Ge 
atom_frac            0.86657841           0.00000000           0.01250000 Ge 
atom_frac            0.89205966           0.92157676           0.00833333 Ge 
atom_frac            0.89205966           0.92157676           0.00000000 Ge 
atom_frac            0.95877046           0.87310852           0.02083333 Ge 
atom_frac            0.95877046           0.87310852           0.01250000 Ge 
atom_frac            0.04122954           0.87310852           0.00833333 Ge 
atom_frac            0.04122954           0.87310852           0.00000000 Ge 
atom_frac            0.10794034           0.92157676           0.02083333 Ge 
atom_frac            0.10794034           0.92157676           0.01250000 Ge 
atom_frac            0.13342159           0.00000000           0.00833333 Ge 
atom_frac            0.13342159           0.00000000           0.02500000 Ge 
atom_frac            0.10794034           0.07842324           0.04583333 Ge 
atom_frac            0.10794034           0.07842324           0.03750000 Ge 
atom_frac            0.04122954           0.12689148           0.03333333 Ge 
atom_frac            0.04122954           0.12689148           0.02500000 Ge 
atom_frac            0.95877046           0.12689148           0.04583333 Ge 
atom_frac            0.95877046           0.12689148           0.03750000 Ge 
atom_frac            0.89205966           0.07842324           0.03333333 Ge 
atom_frac            0.89205966           0.07842324           0.02500000 Ge 
atom_frac            0.86657841           0.00000000           0.04583333 Ge 
atom_frac            0.86657841           0.00000000           0.03750000 Ge 
atom_frac            0.89205966           0.92157676           0.03333333 Ge 
atom_frac            0.89205966           0.92157676           0.02500000 Ge 
atom_frac            0.95877046           0.87310852           0.04583333 Ge 
atom_frac            0.95877046           0.87310852           0.03750000 Ge 
atom_frac            0.04122954           0.87310852           0.03333333 Ge 
atom_frac            0.04122954           0.87310852           0.02500000 Ge 
atom_frac            0.10794034           0.92157676           0.04583333 Ge 
atom_frac            0.10794034           0.92157676           0.03750000 Ge 
atom_frac            0.13342159           0.00000000           0.03333333 Ge 
atom_frac            0.13342159           0.00000000           0.05000000 Ge 
atom_frac            0.10794034           0.07842324           0.07083333 Ge 
atom_frac            0.10794034           0.07842324           0.06250000 Ge 
atom_frac            0.04122954           0.12689148           0.05833333 Ge 
atom_frac            0.04122954           0.12689148           0.05000000 Ge 
atom_frac            0.95877046           0.12689148           0.07083333 Ge 
atom_frac            0.95877046           0.12689148           0.06250000 Ge 
atom_frac            0.89205966           0.07842324           0.05833333 Ge 
atom_frac            0.89205966           0.07842324           0.05000000 Ge 
atom_frac            0.86657841           0.00000000           0.07083333 Ge 
atom_frac            0.86657841           0.00000000           0.06250000 Ge 
atom_frac            0.89205966           0.92157676           0.05833333 Ge 
atom_frac            0.89205966           0.92157676           0.05000000 Ge 
atom_frac            0.95877046           0.87310852           0.07083333 Ge 
atom_frac            0.95877046           0.87310852           0.06250000 Ge 
atom_frac            0.04122954           0.87310852           0.05833333 Ge 
atom_frac            0.04122954           0.87310852           0.05000000 Ge 
atom_frac            0.10794034           0.92157676           0.07083333 Ge 
atom_frac            0.10794034           0.92157676           0.06250000 Ge 
atom_frac            0.13342159           0.00000000           0.05833333 Ge 
atom_frac            0.13342159           0.00000000           0.07500000 Ge 
atom_frac            0.10794034           0.07842324           0.09583333 Ge 
atom_frac            0.10794034           0.07842324           0.08750000 Ge 
atom_frac            0.04122954           0.12689148           0.08333333 Ge 
atom_frac            0.04122954           0.12689148           0.07500000 Ge 
atom_frac            0.95877046           0.12689148           0.09583333 Ge 
atom_frac            0.95877046           0.12689148           0.08750000 Ge 
atom_frac            0.89205966           0.07842324           0.08333333 Ge 
atom_frac            0.89205966           0.07842324           0.07500000 Ge 
atom_frac            0.86657841           0.00000000           0.09583333 Ge 
atom_frac            0.86657841           0.00000000           0.08750000 Ge 
atom_frac            0.89205966           0.92157676           0.08333333 Ge 
atom_frac            0.89205966           0.92157676           0.07500000 Ge 
atom_frac            0.95877046           0.87310852           0.09583333 Ge 
atom_frac            0.95877046           0.87310852           0.08750000 Ge 
atom_frac            0.04122954           0.87310852           0.08333333 Ge 
atom_frac            0.04122954           0.87310852           0.07500000 Ge 
atom_frac            0.10794034           0.92157676           0.09583333 Ge 
atom_frac            0.10794034           0.92157676           0.08750000 Ge 
atom_frac            0.13342159           0.00000000           0.08333333 Ge 
atom_frac            0.13342159           0.00000000           0.10000000 Ge 
atom_frac            0.10794034           0.07842324           0.12083333 Ge 
atom_frac            0.10794034           0.07842324           0.11250000 Ge 
atom_frac            0.04122954           0.12689148           0.10833333 Ge 
atom_frac            0.04122954           0.12689148           0.10000000 Ge 
atom_frac            0.95877046           0.12689148           0.12083333 Ge 
atom_frac            0.95877046           0.12689148           0.11250000 Ge 
atom_frac            0.89205966           0.07842324           0.10833333 Ge 
atom_frac            0.89205966           0.07842324           0.10000000 Ge 
atom_frac            0.86657841           0.00000000           0.12083333 Ge 
atom_frac            0.86657841           0.00000000           0.11250000 Ge 
atom_frac            0.89205966           0.92157676           0.10833333 Ge 
atom_frac            0.89205966           0.92157676           0.10000000 Ge 
atom_frac            0.95877046           0.87310852           0.12083333 Ge 
atom_frac            0.95877046           0.87310852           0.11250000 Ge 
atom_frac            0.04122954           0.87310852           0.10833333 Ge 
atom_frac            0.04122954           0.87310852           0.10000000 Ge 
atom_frac            0.10794034           0.92157676           0.12083333 Ge 
atom_frac            0.10794034           0.92157676           0.11250000 Ge 
atom_frac            0.13342159           0.00000000           0.10833333 Ge 
atom_frac            0.13342159           0.00000000           0.12500000 Ge 
atom_frac            0.10794034           0.07842324           0.14583333 Ge 
atom_frac            0.10794034           0.07842324           0.13750000 Ge 
atom_frac            0.04122954           0.12689148           0.13333333 Ge 
atom_frac            0.04122954           0.12689148           0.12500000 Ge 
atom_frac            0.95877046           0.12689148           0.14583333 Ge 
atom_frac            0.95877046           0.12689148           0.13750000 Ge 
atom_frac            0.89205966           0.07842324           0.13333333 Ge 
atom_frac            0.89205966           0.07842324           0.12500000 Ge 
atom_frac            0.86657841           0.00000000           0.14583333 Ge 
atom_frac            0.86657841           0.00000000           0.13750000 Ge 
atom_frac            0.89205966           0.92157676           0.13333333 Ge 
atom_frac            0.89205966           0.92157676           0.12500000 Ge 
atom_frac            0.95877046           0.87310852           0.14583333 Ge 
atom_frac            0.95877046           0.87310852           0.13750000 Ge 
atom_frac            0.04122954           0.87310852           0.13333333 Ge 
atom_frac            0.04122954           0.87310852           0.12500000 Ge 
atom_frac            0.10794034           0.92157676           0.14583333 Ge 
atom_frac            0.10794034           0.92157676           0.13750000 Ge 
atom_frac            0.13342159           0.00000000           0.13333333 Ge 
atom_frac            0.13342159           0.00000000           0.15000000 Ge 
atom_frac            0.10794034           0.07842324           0.17083333 Ge 
atom_frac            0.10794034           0.07842324           0.16250000 Ge 
atom_frac            0.04122954           0.12689148           0.15833333 Ge 
atom_frac            0.04122954           0.12689148           0.15000000 Ge 
atom_frac            0.95877046           0.12689148           0.17083333 Ge 
atom_frac            0.95877046           0.12689148           0.16250000 Ge 
atom_frac            0.89205966           0.07842324           0.15833333 Ge 
atom_frac            0.89205966           0.07842324           0.15000000 Ge 
atom_frac            0.86657841           0.00000000           0.17083333 Ge 
atom_frac            0.86657841           0.00000000           0.16250000 Ge 
atom_frac            0.89205966           0.92157676           0.15833333 Ge 
atom_frac            0.89205966           0.92157676           0.15000000 Ge 
atom_frac            0.95877046           0.87310852           0.17083333 Ge 
atom_frac            0.95877046           0.87310852           0.16250000 Ge 
atom_frac            0.04122954           0.87310852           0.15833333 Ge 
atom_frac            0.04122954           0.87310852           0.15000000 Ge 
atom_frac            0.10794034           0.92157676           0.17083333 Ge 
atom_frac            0.10794034           0.92157676           0.16250000 Ge 
atom_frac            0.13342159           0.00000000           0.15833333 Ge 
atom_frac            0.13342159           0.00000000           0.17500000 Ge 
atom_frac            0.10794034           0.07842324           0.19583333 Ge 
atom_frac            0.10794034           0.07842324           0.18750000 Ge 
atom_frac            0.04122954           0.12689148           0.18333333 Ge 
atom_frac            0.04122954           0.12689148           0.17500000 Ge 
atom_frac            0.95877046           0.12689148           0.19583333 Ge 
atom_frac            0.95877046           0.12689148           0.18750000 Ge 
atom_frac            0.89205966           0.07842324           0.18333333 Ge 
atom_frac            0.89205966           0.07842324           0.17500000 Ge 
atom_frac            0.86657841           0.00000000           0.19583333 Ge 
atom_frac            0.86657841           0.00000000           0.18750000 Ge 
atom_frac            0.89205966           0.92157676           0.18333333 Ge 
atom_frac            0.89205966           0.92157676           0.17500000 Ge 
atom_frac            0.95877046           0.87310852           0.19583333 Ge 
atom_frac            0.95877046           0.87310852           0.18750000 Ge 
atom_frac            0.04122954           0.87310852           0.18333333 Ge 
atom_frac            0.04122954           0.87310852           0.17500000 Ge 
atom_frac            0.10794034           0.92157676           0.19583333 Ge 
atom_frac            0.10794034           0.92157676           0.18750000 Ge 
atom_frac            0.13342159           0.00000000           0.18333333 Ge 
atom_frac            0.13342159           0.00000000           0.20000000 Ge 
atom_frac            0.10794034           0.07842324           0.22083333 Ge 
atom_frac            0.10794034           0.07842324           0.21250000 Ge 
atom_frac            0.04122954           0.12689148           0.20833333 Ge 
atom_frac            0.04122954           0.12689148           0.20000000 Ge 
atom_frac            0.95877046           0.12689148           0.22083333 Ge 
atom_frac            0.95877046           0.12689148           0.21250000 Ge 
atom_frac            0.89205966           0.07842324           0.20833333 Ge 
atom_frac            0.89205966           0.07842324           0.20000000 Ge 
atom_frac            0.86657841           0.00000000           0.22083333 Ge 
atom_frac            0.86657841           0.00000000           0.21250000 Ge 
atom_frac            0.89205966           0.92157676           0.20833333 Ge 
atom_frac            0.89205966           0.92157676           0.20000000 Ge 
atom_frac            0.95877046           0.87310852           0.22083333 Ge 
atom_frac            0.95877046           0.87310852           0.21250000 Ge 
atom_frac            0.04122954           0.87310852           0.20833333 Ge 
atom_frac            0.04122954           0.87310852           0.20000000 Ge 
atom_frac            0.10794034           0.92157676           0.22083333 Ge 
atom_frac            0.10794034           0.92157676           0.21250000 Ge 
atom_frac            0.13342159           0.00000000           0.20833333 Ge 
atom_frac            0.13342159           0.00000000           0.22500000 Ge 
atom_frac            0.10794034           0.07842324           0.24583333 Ge 
atom_frac            0.10794034           0.07842324           0.23750000 Ge 
atom_frac            0.04122954           0.12689148           0.23333333 Ge 
atom_frac            0.04122954           0.12689148           0.22500000 Ge 
atom_frac            0.95877046           0.12689148           0.24583333 Ge 
atom_frac            0.95877046           0.12689148           0.23750000 Ge 
atom_frac            0.89205966           0.07842324           0.23333333 Ge 
atom_frac            0.89205966           0.07842324           0.22500000 Ge 
atom_frac            0.86657841           0.00000000           0.24583333 Ge 
atom_frac            0.86657841           0.00000000           0.23750000 Ge 
atom_frac            0.89205966           0.92157676           0.23333333 Ge 
atom_frac            0.89205966           0.92157676           0.22500000 Ge 
atom_frac            0.95877046           0.87310852           0.24583333 Ge 
atom_frac            0.95877046           0.87310852           0.23750000 Ge 
atom_frac            0.04122954           0.87310852           0.23333333 Ge 
atom_frac            0.04122954           0.87310852           0.22500000 Ge 
atom_frac            0.10794034           0.92157676           0.24583333 Ge 
atom_frac            0.10794034           0.92157676           0.23750000 Ge 
atom_frac            0.13342159           0.00000000           0.23333333 Ge 
atom_frac            0.13342159           0.00000000           0.25000000 Ge 
atom_frac            0.10794034           0.07842324           0.27083333 Ge 
atom_frac            0.10794034           0.07842324           0.26250000 Ge 
atom_frac            0.04122954           0.12689148           0.25833333 Ge 
atom_frac            0.04122954           0.12689148           0.25000000 Ge 
atom_frac            0.95877046           0.12689148           0.27083333 Ge 
atom_frac            0.95877046           0.12689148           0.26250000 Ge 
atom_frac            0.89205966           0.07842324           0.25833333 Ge 
atom_frac            0.89205966           0.07842324           0.25000000 Ge 
atom_frac            0.86657841           0.00000000           0.27083333 Ge 
atom_frac            0.86657841           0.00000000           0.26250000 Ge 
atom_frac            0.89205966           0.92157676           0.25833333 Ge 
atom_frac            0.89205966           0.92157676           0.25000000 Ge 
atom_frac            0.95877046           0.87310852           0.27083333 Ge 
atom_frac            0.95877046           0.87310852           0.26250000 Ge 
atom_frac            0.04122954           0.87310852           0.25833333 Ge 
atom_frac            0.04122954           0.87310852           0.25000000 Ge 
atom_frac            0.10794034           0.92157676           0.27083333 Ge 
atom_frac            0.10794034           0.92157676           0.26250000 Ge 
atom_frac            0.13342159           0.00000000           0.25833333 Ge 
atom_frac            0.13342159           0.00000000           0.27500000 Ge 
atom_frac            0.10794034           0.07842324           0.29583333 Ge 
atom_frac            0.10794034           0.07842324           0.28750000 Ge 
atom_frac            0.04122954           0.12689148           0.28333333 Ge 
atom_frac            0.04122954           0.12689148           0.27500000 Ge 
atom_frac            0.95877046           0.12689148           0.29583333 Ge 
atom_frac            0.95877046           0.12689148           0.28750000 Ge 
atom_frac            0.89205966           0.07842324           0.28333333 Ge 
atom_frac            0.89205966           0.07842324           0.27500000 Ge 
atom_frac            0.86657841           0.00000000           0.29583333 Ge 
atom_frac            0.86657841           0.00000000           0.28750000 Ge 
atom_frac            0.89205966           0.92157676           0.28333333 Ge 
atom_frac            0.89205966           0.92157676           0.27500000 Ge 
atom_frac            0.95877046           0.87310852           0.29583333 Ge 
atom_frac            0.95877046           0.87310852           0.28750000 Ge 
atom_frac            0.04122954           0.87310852           0.28333333 Ge 
atom_frac            0.04122954           0.87310852           0.27500000 Ge 
atom_frac            0.10794034           0.92157676           0.29583333 Ge 
atom_frac            0.10794034           0.92157676           0.28750000 Ge 
atom_frac            0.13342159           0.00000000           0.28333333 Ge 
atom_frac            0.13342159           0.00000000           0.30000000 Ge 
atom_frac            0.10794034           0.07842324           0.32083333 Ge 
atom_frac            0.10794034           0.07842324           0.31250000 Ge 
atom_frac            0.04122954           0.12689148           0.30833333 Ge 
atom_frac            0.04122954           0.12689148           0.30000000 Ge 
atom_frac            0.95877046           0.12689148           0.32083333 Ge 
atom_frac            0.95877046           0.12689148           0.31250000 Ge 
atom_frac            0.89205966           0.07842324           0.30833333 Ge 
atom_frac            0.89205966           0.07842324           0.30000000 Ge 
atom_frac            0.86657841           0.00000000           0.32083333 Ge 
atom_frac            0.86657841           0.00000000           0.31250000 Ge 
atom_frac            0.89205966           0.92157676           0.30833333 Ge 
atom_frac            0.89205966           0.92157676           0.30000000 Ge 
atom_frac            0.95877046           0.87310852           0.32083333 Ge 
atom_frac            0.95877046           0.87310852           0.31250000 Ge 
atom_frac            0.04122954           0.87310852           0.30833333 Ge 
atom_frac            0.04122954           0.87310852           0.30000000 Ge 
atom_frac            0.10794034           0.92157676           0.32083333 Ge 
atom_frac            0.10794034           0.92157676           0.31250000 Ge 
atom_frac            0.13342159           0.00000000           0.30833333 Ge 
atom_frac            0.13342159           0.00000000           0.32500000 Ge 
atom_frac            0.10794034           0.07842324           0.34583333 Ge 
atom_frac            0.10794034           0.07842324           0.33750000 Ge 
atom_frac            0.04122954           0.12689148           0.33333333 Ge 
atom_frac            0.04122954           0.12689148           0.32500000 Ge 
atom_frac            0.95877046           0.12689148           0.34583333 Ge 
atom_frac            0.95877046           0.12689148           0.33750000 Ge 
atom_frac            0.89205966           0.07842324           0.33333333 Ge 
atom_frac            0.89205966           0.07842324           0.32500000 Ge 
atom_frac            0.86657841           0.00000000           0.34583333 Ge 
atom_frac            0.86657841           0.00000000           0.33750000 Ge 
atom_frac            0.89205966           0.92157676           0.33333333 Ge 
atom_frac            0.89205966           0.92157676           0.32500000 Ge 
atom_frac            0.95877046           0.87310852           0.34583333 Ge 
atom_frac            0.95877046           0.87310852           0.33750000 Ge 
atom_frac            0.04122954           0.87310852           0.33333333 Ge 
atom_frac            0.04122954           0.87310852           0.32500000 Ge 
atom_frac            0.10794034           0.92157676           0.34583333 Ge 
atom_frac            0.10794034           0.92157676           0.33750000 Ge 
atom_frac            0.13342159           0.00000000           0.33333333 Ge 
atom_frac            0.13342159           0.00000000           0.35000000 Ge 
atom_frac            0.10794034           0.07842324           0.37083333 Ge 
atom_frac            0.10794034           0.07842324           0.36250000 Ge 
atom_frac            0.04122954           0.12689148           0.35833333 Ge 
atom_frac            0.04122954           0.12689148           0.35000000 Ge 
atom_frac            0.95877046           0.12689148           0.37083333 Ge 
atom_frac            0.95877046           0.12689148           0.36250000 Ge 
atom_frac            0.89205966           0.07842324           0.35833333 Ge 
atom_frac            0.89205966           0.07842324           0.35000000 Ge 
atom_frac            0.86657841           0.00000000           0.37083333 Ge 
atom_frac            0.86657841           0.00000000           0.36250000 Ge 
atom_frac            0.89205966           0.92157676           0.35833333 Ge 
atom_frac            0.89205966           0.92157676           0.35000000 Ge 
atom_frac            0.95877046           0.87310852           0.37083333 Ge 
atom_frac            0.95877046           0.87310852           0.36250000 Ge 
atom_frac            0.04122954           0.87310852           0.35833333 Ge 
atom_frac            0.04122954           0.87310852           0.35000000 Ge 
atom_frac            0.10794034           0.92157676           0.37083333 Ge 
atom_frac            0.10794034           0.92157676           0.36250000 Ge 
atom_frac            0.13342159           0.00000000           0.35833333 Ge 
atom_frac            0.13342159           0.00000000           0.37500000 Ge 
atom_frac            0.10794034           0.07842324           0.39583333 Ge 
atom_frac            0.10794034           0.07842324           0.38750000 Ge 
atom_frac            0.04122954           0.12689148           0.38333333 Ge 
atom_frac            0.04122954           0.12689148           0.37500000 Ge 
atom_frac            0.95877046           0.12689148           0.39583333 Ge 
atom_frac            0.95877046           0.12689148           0.38750000 Ge 
atom_frac            0.89205966           0.07842324           0.38333333 Ge 
atom_frac            0.89205966           0.07842324           0.37500000 Ge 
atom_frac            0.86657841           0.00000000           0.39583333 Ge 
atom_frac            0.86657841           0.00000000           0.38750000 Ge 
atom_frac            0.89205966           0.92157676           0.38333333 Ge 
atom_frac            0.89205966           0.92157676           0.37500000 Ge 
atom_frac            0.95877046           0.87310852           0.39583333 Ge 
atom_frac            0.95877046           0.87310852           0.38750000 Ge 
atom_frac            0.04122954           0.87310852           0.38333333 Ge 
atom_frac            0.04122954           0.87310852           0.37500000 Ge 
atom_frac            0.10794034           0.92157676           0.39583333 Ge 
atom_frac            0.10794034           0.92157676           0.38750000 Ge 
atom_frac            0.13342159           0.00000000           0.38333333 Ge 
atom_frac            0.13342159           0.00000000           0.40000000 Ge 
atom_frac            0.10794034           0.07842324           0.42083333 Ge 
atom_frac            0.10794034           0.07842324           0.41250000 Ge 
atom_frac            0.04122954           0.12689148           0.40833333 Ge 
atom_frac            0.04122954           0.12689148           0.40000000 Ge 
atom_frac            0.95877046           0.12689148           0.42083333 Ge 
atom_frac            0.95877046           0.12689148           0.41250000 Ge 
atom_frac            0.89205966           0.07842324           0.40833333 Ge 
atom_frac            0.89205966           0.07842324           0.40000000 Ge 
atom_frac            0.86657841           0.00000000           0.42083333 Ge 
atom_frac            0.86657841           0.00000000           0.41250000 Ge 
atom_frac            0.89205966           0.92157676           0.40833333 Ge 
atom_frac            0.89205966           0.92157676           0.40000000 Ge 
atom_frac            0.95877046           0.87310852           0.42083333 Ge 
atom_frac            0.95877046           0.87310852           0.41250000 Ge 
atom_frac            0.04122954           0.87310852           0.40833333 Ge 
atom_frac            0.04122954           0.87310852           0.40000000 Ge 
atom_frac            0.10794034           0.92157676           0.42083333 Ge 
atom_frac            0.10794034           0.92157676           0.41250000 Ge 
atom_frac            0.13342159           0.00000000           0.40833333 Ge 
atom_frac            0.13342159           0.00000000           0.42500000 Ge 
atom_frac            0.10794034           0.07842324           0.44583333 Ge 
atom_frac            0.10794034           0.07842324           0.43750000 Ge 
atom_frac            0.04122954           0.12689148           0.43333333 Ge 
atom_frac            0.04122954           0.12689148           0.42500000 Ge 
atom_frac            0.95877046           0.12689148           0.44583333 Ge 
atom_frac            0.95877046           0.12689148           0.43750000 Ge 
atom_frac            0.89205966           0.07842324           0.43333333 Ge 
atom_frac            0.89205966           0.07842324           0.42500000 Ge 
atom_frac            0.86657841           0.00000000           0.44583333 Ge 
atom_frac            0.86657841           0.00000000           0.43750000 Ge 
atom_frac            0.89205966           0.92157676           0.43333333 Ge 
atom_frac            0.89205966           0.92157676           0.42500000 Ge 
atom_frac            0.95877046           0.87310852           0.44583333 Ge 
atom_frac            0.95877046           0.87310852           0.43750000 Ge 
atom_frac            0.04122954           0.87310852           0.43333333 Ge 
atom_frac            0.04122954           0.87310852           0.42500000 Ge 
atom_frac            0.10794034           0.92157676           0.44583333 Ge 
atom_frac            0.10794034           0.92157676           0.43750000 Ge 
atom_frac            0.13342159           0.00000000           0.43333333 Ge 
atom_frac            0.13342159           0.00000000           0.45000000 Ge 
atom_frac            0.10794034           0.07842324           0.47083333 Ge 
atom_frac            0.10794034           0.07842324           0.46250000 Ge 
atom_frac            0.04122954           0.12689148           0.45833333 Ge 
atom_frac            0.04122954           0.12689148           0.45000000 Ge 
atom_frac            0.95877046           0.12689148           0.47083333 Ge 
atom_frac            0.95877046           0.12689148           0.46250000 Ge 
atom_frac            0.89205966           0.07842324           0.45833333 Ge 
atom_frac            0.89205966           0.07842324           0.45000000 Ge 
atom_frac            0.86657841           0.00000000           0.47083333 Ge 
atom_frac            0.86657841           0.00000000           0.46250000 Ge 
atom_frac            0.89205966           0.92157676           0.45833333 Ge 
atom_frac            0.89205966           0.92157676           0.45000000 Ge 
atom_frac            0.95877046           0.87310852           0.47083333 Ge 
atom_frac            0.95877046           0.87310852           0.46250000 Ge 
atom_frac            0.04122954           0.87310852           0.45833333 Ge 
atom_frac            0.04122954           0.87310852           0.45000000 Ge 
atom_frac            0.10794034           0.92157676           0.47083333 Ge 
atom_frac            0.10794034           0.92157676           0.46250000 Ge 
atom_frac            0.13342159           0.00000000           0.45833333 Ge 
atom_frac            0.13342159           0.00000000           0.47500000 Ge 